LAMMPS charge data generated for ESP error-estimate validation

512 atoms
1 atom types

0.0 48 xlo xhi
0.0 48 ylo yhi
0.0 48 zlo zhi

Masses

1 1.0

Atoms # charge

1 1 1 6.93174711851 15.9823774881 31.8023483447
2 1 1 12.1972437621 44.8046269116 12.8838401166
3 1 1 17.4072026958 2.85216752039 38.8881662744
4 1 1 17.2637720545 34.3840810574 32.3835701578
5 1 1 10.3242233071 24.0477933014 8.49483325328
6 1 1 4.92003287664 16.965646625 23.6228156734
7 1 1 11.0788083667 33.5071948237 0.871261205827
8 1 1 6.08672377238 26.789668778 8.2638918174
9 1 1 16.8345630093 6.9973904334 16.3665241363
10 1 1 6.06715903962 6.43398053229 15.5011688523
11 1 1 6.09460875264 39.0339700019 18.0046200115
12 1 1 4.47373849657 8.09914762519 33.6099958707
13 1 1 7.82607986875 46.3460360854 24.617845814
14 1 1 5.77756459624 3.18611582765 15.8882717062
15 1 1 18.0217441244 2.50557719831 21.409002295
16 1 1 6.56603256415 3.42135234289 40.468296815
17 1 1 10.8725188469 45.1089985449 25.7347939867
18 1 1 17.581199793 46.0101297221 36.4649554675
19 1 1 13.4527055003 25.3911283352 17.7320178009
20 1 1 14.953606297 20.071936845 25.8260656816
21 1 1 17.0481589313 11.8318862081 37.5720341725
22 1 1 3.94837120126 45.706439407 2.15369540254
23 1 1 9.90691834823 38.9861709799 5.03053155441
24 1 1 7.35081047228 33.1583709736 43.4383929061
25 1 1 7.7575182376 32.8594700349 13.6344453685
26 1 1 13.7986440113 47.518623211 19.6954222686
27 1 1 8.15429242013 32.0045706267 35.959014128
28 1 1 17.2110892267 14.0279956448 4.40126454822
29 1 1 3.91270827776 22.656892355 30.1562544128
30 1 1 15.0089093196 43.1721798848 10.3293790886
31 1 1 16.0602275006 7.60025077647 5.81061294526
32 1 1 6.08329180464 21.7282556241 45.6229325236
33 1 1 14.1603077841 21.7665391137 38.8677542278
34 1 1 9.08142768014 46.5292814763 43.8457197728
35 1 1 13.2962543544 18.743854139 14.9341030192
36 1 1 18.0251927067 31.237986352 35.8310122768
37 1 1 20.1539434792 33.3748383111 5.81668482335
38 1 1 11.1686251156 20.9766635024 10.5388801259
39 1 1 6.53005399253 13.2071063999 3.54897356148
40 1 1 18.4906561615 8.24896598186 18.5485899543
41 1 1 6.38748814893 44.0996256289 35.9563967654
42 1 1 7.24906973401 24.9944088372 36.0682961766
43 1 1 4.61164796979 32.359566103 40.8958726281
44 1 1 14.2944020994 10.1438475395 29.6103717968
45 1 1 10.2527040989 5.93814333224 20.019496794
46 1 1 5.18722500507 14.9060273334 28.5760482902
47 1 1 17.545219023 27.4279446162 32.8542890478
48 1 1 14.3372183496 26.3658660451 14.4658149474
49 1 1 18.0105939565 20.2568453123 7.66943171402
50 1 1 16.142387697 8.08074729647 30.978087188
51 1 1 20.053834514 44.9053901692 3.77428124609
52 1 1 12.0958836214 36.5443543391 12.0842588967
53 1 1 13.1481252837 31.8622978917 34.6146839461
54 1 1 19.2445403031 14.8115819857 15.9511109137
55 1 1 10.9676571137 8.58106717481 2.33329234056
56 1 1 3.93892224092 47.3258026979 19.0710316076
57 1 1 5.25649002653 9.62932199992 47.1971826247
58 1 1 13.3343375068 38.1509703008 3.27629081639
59 1 1 18.4545946642 30.7718134014 27.9721522053
60 1 1 9.83426052193 4.23296953082 5.04856491003
61 1 1 18.6478470049 3.90035569144 9.74294477399
62 1 1 10.670691534 16.6051916241 29.8584344177
63 1 1 12.0097190247 45.0093727209 7.26785219174
64 1 1 8.27274347977 23.0767373441 19.5711066437
65 1 1 10.8632097015 14.1144834266 19.1192908763
66 1 1 11.6537784703 3.14164516176 34.0612345487
67 1 1 10.1106492375 38.5227281765 14.5412036421
68 1 1 8.31217090495 8.22405664235 27.5369312633
69 1 1 9.17275479709 5.79689129278 16.4888324933
70 1 1 4.85813635829 3.3896685611 21.0461068556
71 1 1 16.1801865081 40.0805285778 45.650810466
72 1 1 15.7026715852 30.2360724053 14.2502614786
73 1 1 6.28627220741 37.996240352 14.4188294015
74 1 1 8.06865058933 16.5133609066 26.8547312038
75 1 1 13.7077619374 0.265782233117 2.03825346676
76 1 1 12.6890806518 39.3545930839 23.3018632086
77 1 1 11.1464102108 31.5452906685 32.9045800124
78 1 1 6.40045410009 9.32067993317 19.9120811327
79 1 1 8.97805410331 22.252322877 35.0639373365
80 1 1 11.6327736924 37.89426603 43.4878719573
81 1 1 11.6844916423 41.3260897727 2.87043404344
82 1 1 5.12839961569 15.3284152076 7.54093353422
83 1 1 12.4540804186 20.0049846017 10.6527422509
84 1 1 13.1999913973 17.0944406396 16.2025237301
85 1 1 14.5415254818 18.1297525313 13.1582762251
86 1 1 5.81585473369 30.1089823536 2.24232591417
87 1 1 16.2321183752 10.6789695306 27.2397625756
88 1 1 17.2633992568 8.04148504293 31.0533448361
89 1 1 5.5724652439 33.7065063917 0.256817093597
90 1 1 18.5724635519 5.80401935749 35.2074535199
91 1 1 17.8350258196 41.438873957 26.8153036476
92 1 1 5.28341171855 4.53348441573 26.9653733053
93 1 1 4.55855153182 0.855298331102 4.8051169943
94 1 1 13.1645138705 16.2556383546 37.6154946553
95 1 1 11.7572166045 26.6783176379 18.6221706556
96 1 1 19.6306292426 39.6198844364 33.0663343989
97 1 1 15.4416924776 16.3994494927 19.9027498272
98 1 1 9.79601119839 6.43132514228 28.1109391717
99 1 1 14.0578988928 45.7971075774 47.2516052634
100 1 1 17.2374828387 27.4955541197 4.57150820349
101 1 1 12.6676021835 14.0580334788 1.10670088571
102 1 1 9.75397290443 35.2805935656 9.637496848
103 1 1 9.67160640032 38.7319507514 33.6410459607
104 1 1 18.3245301094 31.0612493594 8.76448752099
105 1 1 17.2337284559 3.18043095498 45.154698055
106 1 1 11.0320870104 29.7955410963 17.8028362024
107 1 1 13.3571135596 18.8495770425 42.8491037614
108 1 1 19.858835268 11.8960563987 21.6294696775
109 1 1 18.1830570351 6.79699046846 3.84425087581
110 1 1 9.02534351809 45.2163154731 0.24928045077
111 1 1 11.4849943329 28.3435373935 33.4152793862
112 1 1 17.2967413592 46.290572467 16.0183498832
113 1 1 13.4562835184 6.58464841996 33.1635331796
114 1 1 7.83999238775 36.0995908512 22.2032003814
115 1 1 5.96936606905 28.4235760218 45.3960228158
116 1 1 7.82716240029 33.0807686425 1.01800695294
117 1 1 11.8730354492 22.0718348966 13.0965279074
118 1 1 7.10524064437 6.92012864726 42.0572596322
119 1 1 3.90741277963 5.97592339637 40.0383789044
120 1 1 5.4429367884 45.0277884704 12.1517386464
121 1 1 6.6696073518 6.21784781761 29.9009990427
122 1 1 11.1605362904 43.7286216976 29.928684629
123 1 1 8.77049282807 23.5855456719 0.669299473721
124 1 1 9.68801085398 9.94088772377 0.387658215402
125 1 1 17.7234180443 15.428220663 30.1080042507
126 1 1 13.935192335 36.7182857268 41.8571498491
127 1 1 11.5008258945 31.4026681415 30.5683758859
128 1 1 4.07972235474 36.7069171039 12.6248856781
129 1 1 6.76566073501 35.3221915027 23.6939007362
130 1 1 5.44729190667 26.8793319846 12.2145830095
131 1 1 11.3415311851 9.12752002149 1.28322559307
132 1 1 8.70493799551 30.4821936655 41.9628560481
133 1 1 4.79251193349 2.70201137157 18.6390909237
134 1 1 17.5643943607 27.4820489676 45.6253129773
135 1 1 15.2603819874 46.9238553966 6.79832227148
136 1 1 7.99004902564 34.5435413724 37.901062817
137 1 1 12.8511256053 31.4161143593 46.9664100214
138 1 1 7.97049313856 6.3814676 13.2427428638
139 1 1 5.38969804585 38.9973361321 1.01435129009
140 1 1 5.74619568662 26.6398365137 3.54105813924
141 1 1 4.16903969566 7.0329822237 21.9394895552
142 1 1 18.2645848681 28.2807874275 42.082006584
143 1 1 12.4544925023 20.1703391898 13.8909997895
144 1 1 10.7376836199 32.2671249849 45.5259169204
145 1 1 16.3609016302 3.31911195972 2.28649604417
146 1 1 5.48807569779 30.0910084767 17.7968177384
147 1 1 18.0344072037 10.4948746782 24.8732257119
148 1 1 13.2404633025 10.7793923498 36.5634429606
149 1 1 12.5953468057 18.423443385 22.4681051469
150 1 1 16.131715554 11.5810789882 44.8093964085
151 1 1 10.5249950718 28.0070103039 15.7437153615
152 1 1 5.92703285583 23.176700089 32.3435213147
153 1 1 9.11518211874 18.6743397823 27.1963168843
154 1 1 16.9273745476 10.8817958622 15.2067690416
155 1 1 4.83885907138 28.2271471832 26.655560271
156 1 1 14.8763243266 38.1158418944 20.5252216265
157 1 1 7.38196925484 33.9222523089 24.5614446996
158 1 1 7.87565460262 44.1551602752 4.27417285286
159 1 1 19.6786526235 25.6366972674 46.3663750192
160 1 1 15.0853070286 42.428146189 26.2391001199
161 1 1 9.5391656684 27.6137362962 34.2848089665
162 1 1 19.2880562978 21.2799160642 31.1895138596
163 1 1 18.5247018083 1.45581646534 0.343415027628
164 1 1 19.7281645853 42.9322858347 10.2121047276
165 1 1 4.77072822014 46.2488340528 17.1072570206
166 1 1 19.9511264295 42.8940983088 43.6647077374
167 1 1 16.2320342369 39.8284235986 16.6602968817
168 1 1 16.966321771 7.20300080662 14.2946715655
169 1 1 4.77193053961 18.553149128 17.2956311538
170 1 1 11.1658406054 43.344927536 42.618877845
171 1 1 15.272775955 12.7564950733 45.5563583926
172 1 1 6.94970707452 6.88822409782 46.3442039854
173 1 1 15.3389775432 16.4309789415 40.4057139755
174 1 1 19.1152497087 43.7584120188 10.986918327
175 1 1 5.05089282688 40.2258987707 18.9960514189
176 1 1 4.66432012548 4.44694519626 2.75066067493
177 1 1 10.7421074246 19.7141010142 10.4783272197
178 1 1 4.54310735988 22.5964712949 31.0570603012
179 1 1 7.77950780876 1.17059015016 46.8015628777
180 1 1 6.39333178958 6.25823948993 24.0222050383
181 1 1 10.7460791837 4.14779001927 12.7356524074
182 1 1 6.14983274289 43.5055663879 37.5159502111
183 1 1 16.103665845 20.6595975696 2.56469074234
184 1 1 18.5965343682 38.3846849066 1.87689142372
185 1 1 17.8236452793 37.0680627036 44.5468059011
186 1 1 10.4213145222 7.00652552756 34.6472090607
187 1 1 12.0210840315 24.1999976953 2.28313407515
188 1 1 14.3512173702 34.9459365068 19.7402393
189 1 1 6.84099089006 38.2625116936 33.4119604426
190 1 1 4.44564633523 4.24173235386 27.8593966927
191 1 1 20.1543032922 3.08705010376 46.9218789033
192 1 1 12.1841997754 37.1493273567 34.492081563
193 1 1 8.21801819649 39.1996493898 45.5324629261
194 1 1 5.8183226536 22.1739057741 9.96674789088
195 1 1 14.8950098275 29.5861538812 11.862856535
196 1 1 9.0250444999 20.8478015879 14.7369359787
197 1 1 14.2437926971 13.651414082 22.3335800332
198 1 1 12.6217466233 42.4667035166 36.5969873491
199 1 1 9.85707703981 37.8711997043 34.274162689
200 1 1 5.64458070195 41.7701722149 16.2124779755
201 1 1 3.97883301818 44.0569421312 25.8948402417
202 1 1 4.7437448378 34.6948181251 30.5103316292
203 1 1 13.0383900045 10.2812113563 18.0908779415
204 1 1 5.95025119592 34.7992645285 39.5092244879
205 1 1 6.36386876536 2.58568709028 12.5713626452
206 1 1 5.3254866203 25.7319631014 14.9620811917
207 1 1 11.8674889816 10.3187805518 15.3466070355
208 1 1 6.40749225247 46.9112138768 41.2126524311
209 1 1 15.1688294212 45.857190725 36.9897214901
210 1 1 12.6912057264 24.5568042936 31.7551223402
211 1 1 11.010765102 39.71430291 28.9688206002
212 1 1 18.1509058093 34.6384368937 8.44802131568
213 1 1 6.0416993139 37.1930167439 32.3867355185
214 1 1 12.7807574556 29.0012741903 21.3828617798
215 1 1 13.2184892832 8.61458570854 15.073954821
216 1 1 14.1381616629 5.40036024259 7.8501547691
217 1 1 7.1310161639 43.6808973699 3.31974342396
218 1 1 6.00792100547 37.2022660105 15.5541093275
219 1 1 4.78701602796 40.9716138176 9.31293713884
220 1 1 9.53069016801 23.0700346947 24.2024553527
221 1 1 17.6160376284 39.212648277 37.8267877486
222 1 1 14.413988432 43.7606182175 27.9542367041
223 1 1 12.8158070164 40.7208019904 28.8022802965
224 1 1 12.3984538756 13.7107798158 40.5783098994
225 1 1 14.0255482897 33.4434642442 8.1266605774
226 1 1 16.0711307775 14.2223661082 0.404083586339
227 1 1 17.4954853062 37.0067884754 34.0384641775
228 1 1 3.99769805482 41.4312105244 23.1584685217
229 1 1 13.1163168317 45.4094515531 27.1617516599
230 1 1 11.8082326455 38.1172641883 35.8147240908
231 1 1 3.92099531732 35.1869893852 42.20388916
232 1 1 7.01304842761 13.0508256556 7.65133152508
233 1 1 11.6591769414 37.7883538986 30.1337755785
234 1 1 9.24955427088 28.2556832148 18.3114646137
235 1 1 7.06663595477 25.4910864238 35.5283158541
236 1 1 11.2527461274 10.4869610716 31.37641471
237 1 1 8.93565893467 32.5480328486 21.8461430432
238 1 1 18.7863434242 7.6121886928 44.6411663818
239 1 1 14.9106448572 23.7957919127 26.9838491292
240 1 1 8.98030429346 26.6428537007 7.04430199133
241 1 1 11.625683659 3.31172544468 4.08576990163
242 1 1 7.51500812682 3.28842476099 24.1225461884
243 1 1 10.5589190253 28.2282475094 36.2984479552
244 1 1 13.8252955992 38.8623389235 7.13905308036
245 1 1 10.6984999123 24.7517221935 36.3421855508
246 1 1 17.3143025913 3.74971219412 26.6918228303
247 1 1 6.35022358054 10.2627361973 7.28782220859
248 1 1 16.0798672908 6.22755147745 3.51350435625
249 1 1 8.50444455051 35.0312736834 12.7245822079
250 1 1 8.66416278154 8.88125514002 22.2615917804
251 1 1 5.16232291771 7.10592121796 4.39143925054
252 1 1 17.2678421119 2.18029828129 3.49544430557
253 1 1 9.28780285639 31.5335086233 47.7286939659
254 1 1 10.8083238483 7.78064991088 12.7725061374
255 1 1 12.7652047627 46.2154454384 18.8011555207
256 1 1 16.0211618009 30.2982650538 33.4712620089
257 1 -1 37.0017352155 43.165284794 37.3329126197
258 1 -1 42.1636135684 1.81048718201 25.4063689166
259 1 -1 29.4166426035 3.88451083277 9.08399092273
260 1 -1 34.6841272538 10.6029278365 27.9238453075
261 1 -1 42.3209494078 39.6491357862 1.96729174114
262 1 -1 38.7912969178 36.8097529248 25.9659751401
263 1 -1 27.9842967313 19.736261705 2.3395322393
264 1 -1 30.5966840496 5.83176138785 2.47948208589
265 1 -1 29.8575800651 21.0556575013 28.6282913767
266 1 -1 34.2993141691 16.4506578553 22.1563536776
267 1 -1 41.7682728734 8.46733022436 22.0571272957
268 1 -1 34.5655938332 47.6537808958 46.3540331349
269 1 -1 30.7573656724 44.3662453718 30.4561805395
270 1 -1 37.0162788735 26.3821237157 40.5964905452
271 1 -1 39.0252090678 3.59712998839 44.3979968341
272 1 -1 28.1341956775 40.9240029836 10.5177597254
273 1 -1 38.5610637353 22.2237581395 32.1284572188
274 1 -1 39.2349950644 0.886979841264 38.2919040892
275 1 -1 30.8349365148 36.0972940687 11.4181014277
276 1 -1 30.6669490469 38.0664000597 28.849376965
277 1 -1 42.5752962708 36.3348575169 30.8398930217
278 1 -1 34.1250559936 21.7848451319 28.6586325766
279 1 -1 34.9326448707 19.4618383831 9.31071862866
280 1 -1 36.7840672996 30.8657874778 42.6191941377
281 1 -1 28.2038728784 27.6177050613 12.031192555
282 1 -1 33.6705793367 39.2735157389 30.0919119319
283 1 -1 36.8409069645 10.9297907144 22.6048479937
284 1 -1 36.1835725294 33.2616298367 19.8198277153
285 1 -1 33.1326211764 22.353362091 46.7598542929
286 1 -1 28.9752137904 41.6588238948 10.8604629907
287 1 -1 29.9972297762 4.29975345926 39.4951679649
288 1 -1 39.6860133407 47.3794420732 45.8635213549
289 1 -1 37.5270521398 20.646986188 24.8226751401
290 1 -1 33.5471299735 11.9802480723 44.7969739152
291 1 -1 34.2358156639 12.326016768 23.7540718841
292 1 -1 33.4254401467 21.2689283412 27.4469388791
293 1 -1 36.3002340634 19.9753526474 0.828156195226
294 1 -1 33.4249617291 20.7659135699 32.052891572
295 1 -1 28.9270511518 34.3433769264 17.887211115
296 1 -1 40.6022475651 28.6616613021 0.521517541662
297 1 -1 36.3105859605 22.1793383218 32.9294209325
298 1 -1 32.6061092035 1.84944289261 38.3546625104
299 1 -1 34.9359738928 38.0286443418 7.56273330317
300 1 -1 37.8301037495 13.4955359097 7.21110903807
301 1 -1 41.6516543024 33.5497184308 14.5666349089
302 1 -1 29.5574742467 25.5177465727 44.3426329175
303 1 -1 32.253892388 9.79373801487 36.56687808
304 1 -1 34.377060933 27.2400806453 24.1788373998
305 1 -1 41.4613106225 17.3624280925 30.1891823404
306 1 -1 37.58482194 46.4523075759 19.9747181076
307 1 -1 34.6513656354 41.7555223761 42.8245746181
308 1 -1 38.1509838028 14.8679272755 46.4000838056
309 1 -1 43.258037914 15.997927436 32.5336974688
310 1 -1 28.7084550175 5.421658859 12.022720767
311 1 -1 29.7208508253 20.2828140841 17.425066242
312 1 -1 35.1456209272 23.5041402439 24.654883675
313 1 -1 35.7601979359 35.8457759079 15.7457198729
314 1 -1 40.1711784874 9.14302030454 5.23086997737
315 1 -1 38.0400423615 35.5757148954 12.43868967
316 1 -1 40.5897951179 7.19812144028 24.7739681571
317 1 -1 38.1564161238 25.8943684766 33.4582424192
318 1 -1 32.8621341926 40.4643443197 42.8024101446
319 1 -1 31.1967357862 6.21751265867 2.32852737151
320 1 -1 43.4831218201 41.9381703747 29.4025487608
321 1 -1 28.6144978561 0.797281697534 15.7760503954
322 1 -1 42.0723384078 47.2994430007 21.1381850747
323 1 -1 36.6855142204 4.9591797266 9.60794814769
324 1 -1 29.3565417436 33.8180197679 13.9210634239
325 1 -1 29.2392496343 12.5370783223 12.8507155029
326 1 -1 37.3699857041 29.8789738291 20.9602131505
327 1 -1 36.5730117 21.7838069845 10.9118719386
328 1 -1 31.2275022259 45.5956597692 5.95171879876
329 1 -1 31.1728432081 9.5572794045 25.6606448342
330 1 -1 33.8974021727 28.4759290991 22.6757680073
331 1 -1 37.8472433072 18.1667892888 9.97037727448
332 1 -1 43.0038702896 43.1520920521 37.2696158891
333 1 -1 29.8726639802 5.34238818309 21.1659094281
334 1 -1 35.2549483806 5.82835060132 4.49841301895
335 1 -1 39.1489857371 13.5181060527 26.1720612994
336 1 -1 33.3523977016 26.5044189906 25.0237937279
337 1 -1 31.7178827623 44.7266069842 29.0895478727
338 1 -1 35.9465627137 33.0498494473 19.6278619518
339 1 -1 29.8602723023 27.6817081176 2.17873108997
340 1 -1 39.802756799 45.2409661561 24.1326690729
341 1 -1 39.2457157458 9.14298632085 35.392827223
342 1 -1 41.3045243202 20.6993293251 16.2325289573
343 1 -1 42.3708709848 21.6782201578 9.33074487333
344 1 -1 44.0610806199 16.8819378852 36.2723866571
345 1 -1 43.4496957125 38.7062547663 44.9427863454
346 1 -1 31.0182610417 15.2108781521 41.3146667538
347 1 -1 34.6194970428 33.7942408137 8.0702730698
348 1 -1 44.1133616542 12.1417637473 17.7916560698
349 1 -1 33.256848997 40.7618065603 28.8477537917
350 1 -1 28.8444706676 23.4398424954 43.1321629474
351 1 -1 30.4808922002 15.3742234952 16.7855389147
352 1 -1 32.6013601078 42.8320677827 17.1051238509
353 1 -1 31.9547890746 47.8465940004 16.5784447675
354 1 -1 35.3190755973 25.5400939698 41.885338288
355 1 -1 36.2616690486 5.62331479989 10.3283571498
356 1 -1 34.5654934597 30.3995273146 25.0006397231
357 1 -1 39.3674964111 37.3294765986 46.7776704922
358 1 -1 41.5468521524 24.5884038333 24.8817549339
359 1 -1 37.4077326757 3.32699739048 0.764460347601
360 1 -1 32.1663191072 27.4392680191 30.7768369268
361 1 -1 42.7236013499 6.08234958395 38.8118592978
362 1 -1 42.9051479179 5.02146970166 35.5844819753
363 1 -1 31.1661619787 4.93438192254 25.5057547582
364 1 -1 39.7984264183 3.61332879288 15.992472174
365 1 -1 42.5325426046 10.1520982829 8.31297376107
366 1 -1 40.2985809071 35.4636100038 41.7123231611
367 1 -1 28.5592122211 9.06045092727 40.61256204
368 1 -1 31.9256185018 17.5906079222 12.510713675
369 1 -1 43.7786926937 24.0586073946 13.1307058019
370 1 -1 41.8642720872 40.9258954523 46.8518666267
371 1 -1 30.9571970116 20.8616669743 23.096359684
372 1 -1 29.4597686909 10.549435871 3.6755895854
373 1 -1 42.6380487037 26.0542207931 11.95142863
374 1 -1 29.016869832 36.7128788267 13.5563002159
375 1 -1 31.3629117639 39.7069589386 32.8110607212
376 1 -1 34.9556995507 4.07296177131 18.9328467516
377 1 -1 40.4037572224 46.6365624681 12.7152447369
378 1 -1 35.2242515107 32.0702347134 36.0755940299
379 1 -1 29.9972901454 8.46673050148 47.6748568166
380 1 -1 29.4438467488 15.0576982671 8.9637473555
381 1 -1 37.7682616629 31.9629206038 42.5855902586
382 1 -1 42.9310747663 13.9369122909 6.75559025466
383 1 -1 33.8445648367 18.2964815689 33.27242387
384 1 -1 28.5917616942 39.9330844366 20.7834449408
385 1 -1 37.4531686564 39.6427866876 7.84126552676
386 1 -1 40.9212162756 0.665055519595 39.3795255435
387 1 -1 35.89167988 28.5897635421 37.8456196714
388 1 -1 27.9733009768 20.9341095432 46.1136796726
389 1 -1 37.5335798397 34.5284416729 20.6571615197
390 1 -1 39.6671443963 9.11048580997 20.5022087945
391 1 -1 28.6624673198 20.9086994316 14.7818608138
392 1 -1 40.0789482147 13.9912234222 32.5554472185
393 1 -1 32.6749224582 36.7501511009 36.984885184
394 1 -1 37.6741879347 25.8110495806 17.4138223766
395 1 -1 30.3127295908 9.85849463611 36.0900430432
396 1 -1 29.8470177692 28.3244741947 30.0320970529
397 1 -1 39.358182804 0.0643572642351 15.0675635017
398 1 -1 43.7892918931 5.84158634518 34.3656817493
399 1 -1 41.7605083076 40.8705193359 37.6554108092
400 1 -1 41.5541053749 6.18228862629 18.8097045818
401 1 -1 30.5045451131 38.1634431456 1.18844110526
402 1 -1 33.5884860231 38.0377719041 6.50550351627
403 1 -1 32.5799202447 47.5318611752 14.6940465161
404 1 -1 29.8578181112 14.3102324886 44.5381014099
405 1 -1 39.8839159963 42.0226752273 16.8995631989
406 1 -1 33.9105143117 19.0678232148 34.4800913746
407 1 -1 31.6485710205 2.60181420304 33.6133277978
408 1 -1 39.783413009 16.5128633151 32.1593827237
409 1 -1 40.0430350261 32.6474631376 32.4255588152
410 1 -1 41.9797077094 19.5367695008 18.4057943115
411 1 -1 36.3074344245 17.3493424331 38.3651167212
412 1 -1 35.3827342974 22.8621114634 8.56167751101
413 1 -1 28.7740249495 28.9509576105 40.192601574
414 1 -1 42.9541034442 6.37454119551 16.0731382401
415 1 -1 32.1093985475 22.7081854302 47.6170836484
416 1 -1 32.3570590848 43.4007280422 16.3492188857
417 1 -1 37.4170784804 46.8338460333 39.5078840622
418 1 -1 37.1703616632 32.8796394472 33.8594991167
419 1 -1 42.3821138793 30.6098369707 21.2531789084
420 1 -1 38.6117834786 8.66658878007 8.75523557337
421 1 -1 29.6018200711 35.1566457048 3.67081169969
422 1 -1 41.0700612734 6.98116562534 17.0777722512
423 1 -1 37.8452923575 8.58245819279 41.0372219773
424 1 -1 30.3357183932 7.7241394278 34.2044969839
425 1 -1 43.3809557311 18.3078123327 40.1811221269
426 1 -1 35.5780870431 24.1431709011 40.2568099434
427 1 -1 37.8507359504 32.9418674944 19.2963740883
428 1 -1 28.8040016943 28.1825121221 46.6787290146
429 1 -1 32.4954749171 33.3652882189 5.83591907759
430 1 -1 39.9375862573 19.046246083 21.2518830459
431 1 -1 31.0374397944 17.0639669295 27.7562569877
432 1 -1 43.4835434306 47.8852764155 1.69867000567
433 1 -1 32.8406595678 34.5541612705 18.9778584083
434 1 -1 37.4051968951 22.3550843568 45.6218584394
435 1 -1 43.119824504 47.0540384686 35.0957128019
436 1 -1 33.3372566581 8.56040856128 5.55066662265
437 1 -1 40.9377246117 36.0980431185 15.6787489901
438 1 -1 33.167198795 40.8886536162 24.4986981552
439 1 -1 29.4262166198 39.6796916621 36.3918101303
440 1 -1 40.8270621877 27.460215131 8.33992562081
441 1 -1 43.5336397825 5.79844059432 9.14262925365
442 1 -1 31.7471187619 30.1142483252 41.5210108693
443 1 -1 37.7852663676 19.2145215978 3.31186609788
444 1 -1 35.6106743101 18.8050072503 2.30167555967
445 1 -1 38.5341638635 5.81878187253 4.73480091159
446 1 -1 40.7319214024 19.9827167573 2.58812846926
447 1 -1 38.7314351632 17.2123283399 10.5348687006
448 1 -1 32.0290583225 8.44978003149 40.7777528634
449 1 -1 39.4777628821 1.82513152869 1.17833002729
450 1 -1 29.5112815469 37.9926865773 35.0461081364
451 1 -1 29.2442122637 13.3866089968 34.0788412874
452 1 -1 40.8238425035 38.0600204042 19.078335473
453 1 -1 36.9219166708 18.2019800532 33.7701765028
454 1 -1 33.7448663809 14.7320192363 46.2536609732
455 1 -1 31.2139506162 33.7535315732 27.4723746259
456 1 -1 43.8674033001 17.3281870325 31.4605929776
457 1 -1 39.0048540184 1.38145618568 14.3193525589
458 1 -1 40.0520067388 33.5312762669 8.2421081748
459 1 -1 41.7755536638 17.7004078771 11.2550172048
460 1 -1 34.6874913391 34.3151684484 41.7158735257
461 1 -1 33.4490128691 46.4018317104 35.1162884741
462 1 -1 28.339871985 11.9949906864 16.8604932155
463 1 -1 42.4461711828 0.511911048886 20.4815379878
464 1 -1 38.367939749 10.9211382378 35.2606742451
465 1 -1 32.8012118229 25.4974268157 24.1955851375
466 1 -1 37.5730477198 0.664899713031 40.1897859733
467 1 -1 28.8446611441 19.9065151271 7.83455473709
468 1 -1 30.1170943561 33.7721807555 35.9300730862
469 1 -1 40.5529969591 18.0265557603 30.8268149517
470 1 -1 33.7214109589 31.3201950065 13.7980175204
471 1 -1 37.6313905455 35.22671257 3.90299926109
472 1 -1 34.8709716304 8.48106954463 1.69955764109
473 1 -1 34.0988802081 37.6875603311 9.40009842943
474 1 -1 38.8248505349 13.8801701784 8.33763050311
475 1 -1 32.7522983755 16.5473230519 9.25785266692
476 1 -1 41.7748563211 12.0037584872 1.84691835874
477 1 -1 39.3171127263 40.1995613154 15.7000498256
478 1 -1 29.6771848812 39.4138070912 33.6981306174
479 1 -1 32.856325386 27.1368774429 29.6956802157
480 1 -1 28.6258753733 9.92404956111 33.8307779106
481 1 -1 38.0720824917 31.9664734263 47.7658231525
482 1 -1 44.0983844464 37.0565957086 36.2041700512
483 1 -1 37.0725548729 16.6408008803 45.7198929267
484 1 -1 41.4994129968 33.4352738274 0.49656681409
485 1 -1 33.3245669441 22.1295622442 38.9984175293
486 1 -1 31.5727558214 33.2343917654 0.330162432522
487 1 -1 31.3627663009 2.01680411378 19.6680476734
488 1 -1 34.2640284763 39.2379462119 19.3088393792
489 1 -1 29.4375530699 23.6764751728 37.249736228
490 1 -1 31.1462316709 21.050638804 11.0016637294
491 1 -1 28.8542202245 40.7850098413 19.3946205453
492 1 -1 42.5206020806 32.6212622228 37.2814700935
493 1 -1 41.0117744111 15.6335372878 7.37496814931
494 1 -1 43.8880507945 20.8331179943 22.6155625842
495 1 -1 35.9189200539 35.7658097496 2.7033783384
496 1 -1 31.3697040355 43.6430345765 11.166477902
497 1 -1 35.3741406595 8.40135359484 42.7463591775
498 1 -1 39.1514425441 36.8853157324 6.49057086027
499 1 -1 33.579163647 21.4359877383 5.49780297449
500 1 -1 30.505129537 8.47337911539 9.28860241721
501 1 -1 42.1269613549 36.5446093147 47.6058087529
502 1 -1 28.9936640224 28.8229999366 18.03519163
503 1 -1 42.4060024587 14.7076788372 34.2460629064
504 1 -1 35.3871168217 31.894860472 38.6035973558
505 1 -1 35.292928748 36.4591762215 2.13737220396
506 1 -1 43.6497034102 31.6273732821 41.2500021743
507 1 -1 36.4750922612 44.4616633882 42.0257132303
508 1 -1 27.9659097876 46.2284546253 16.6302504595
509 1 -1 30.0578511076 4.34792652846 22.2249804457
510 1 -1 27.8780237666 2.70885513991 20.8707154787
511 1 -1 35.4648912953 40.4935254144 12.4487278766
512 1 -1 28.8142826042 11.2964134431 42.1260890011
