LAMMPS charge data generated for ESP error-estimate validation

512 atoms
1 atom types

0.0 48 xlo xhi
0.0 48 ylo yhi
0.0 48 zlo zhi

Masses

1 1.0

Atoms # charge

1 1 1 15.7628699498 13.1634976029 6.66887813655
2 1 1 3.37761374102 41.4573391567 17.1366243737
3 1 -1 13.0414427305 45.0975700047 16.245287346
4 1 -1 2.05502742211 19.2651826361 39.538882848
5 1 1 18.3456885268 18.9247426286 47.4668416641
6 1 1 36.0358637739 3.08470341524 12.9175393262
7 1 1 20.2943985531 2.93402001262 27.9120960138
8 1 -1 47.0864402423 36.6272489784 32.6369766316
9 1 1 22.1491721541 46.8167308853 16.6835987954
10 1 -1 35.1016708437 13.4732027464 4.99822217399
11 1 -1 35.3048852409 31.0758378631 31.5541480733
12 1 -1 28.0636954847 11.3616924299 2.18913008753
13 1 1 32.0110564272 47.5543044997 23.1086737082
14 1 -1 36.3752387577 41.2805395848 1.91794003134
15 1 -1 19.8835358929 34.2536771532 29.7012816513
16 1 1 12.4836265537 44.9229472046 47.6323501576
17 1 1 27.0042936417 33.8477415584 32.8638027956
18 1 -1 12.5405153142 4.11645673503 34.5722111362
19 1 -1 11.75045225 22.7560250162 13.1322145316
20 1 -1 30.595643235 28.7107152733 15.5924691983
21 1 1 23.9185638904 31.7460167133 43.3352066997
22 1 1 34.580265524 37.4586290174 21.9431882144
23 1 1 20.4587522752 24.114330801 25.9590708341
24 1 -1 13.2838217997 17.5424615884 0.548752135602
25 1 -1 21.4817862973 3.73750786784 20.6960792683
26 1 -1 34.3058812375 10.5098466523 17.275219306
27 1 1 5.4012222607 2.10710882866 30.8878297298
28 1 -1 30.9350348307 13.3992334503 16.0696532329
29 1 -1 6.14140653798 20.2202798542 35.7558880467
30 1 -1 6.30439735061 11.5718347509 18.0775707734
31 1 -1 37.0011185929 27.6736025971 42.3043349061
32 1 -1 13.3237946286 45.3886771202 37.3256642791
33 1 -1 30.2618699435 3.39095451002 36.4538383363
34 1 -1 5.50511421594 4.74041904191 23.7175597207
35 1 -1 33.9327349497 23.6299101978 38.0608252378
36 1 1 3.83368384875 31.984471942 2.10174365902
37 1 -1 46.6060930202 23.7965513901 23.1114214029
38 1 1 3.45847589639 5.69407542197 39.2519899252
39 1 -1 16.7731876852 46.0267398061 12.3818060298
40 1 -1 20.0759055723 43.4872755691 3.64628055711
41 1 1 4.44831197204 28.5889666768 2.84526162346
42 1 1 7.68948668065 2.41080174285 24.2507859177
43 1 1 1.73221893463 44.5252788445 30.9400714598
44 1 1 46.8418269775 17.9611043931 17.3709528197
45 1 -1 24.0772930188 0.648107324807 43.091814906
46 1 -1 23.3994902251 34.1747278658 7.4970506968
47 1 -1 38.4431355172 38.9185721719 17.068747008
48 1 1 12.1270301828 40.7699765712 33.2939170017
49 1 -1 33.398946975 31.2016613569 46.0749841529
50 1 1 6.66033316589 42.4578147528 9.31261352174
51 1 1 14.3327352309 45.6920672429 3.26591159132
52 1 1 31.1844468896 17.8366736549 14.7053953424
53 1 -1 22.0727794633 35.5351370881 46.6387153489
54 1 1 32.8861988543 0.581304996912 7.98146914018
55 1 1 35.3839641759 4.43894398553 46.1325308779
56 1 1 29.1627888315 8.17551505117 17.7783805271
57 1 1 20.2324030584 15.2113533554 22.1041540219
58 1 1 17.194061654 28.0822982798 31.2439931926
59 1 -1 16.7896583735 11.2858866971 43.2713819578
60 1 1 0.485804365267 3.17009362766 37.7722766727
61 1 -1 12.961885491 35.2639792356 25.0344438057
62 1 1 40.6059420813 21.8810687387 20.9983767239
63 1 -1 15.8589791663 20.4987958186 43.8836496249
64 1 1 5.33286030375 5.8773601083 13.336270146
65 1 1 9.24294625193 38.3634315865 6.10831964953
66 1 -1 17.6461029295 34.5958462242 30.110091222
67 1 -1 24.4742125124 3.6684867499 10.7446961146
68 1 1 3.63050360243 44.0982288028 3.54219396606
69 1 1 38.7800538939 46.8025119675 1.63302953238
70 1 1 43.5749690903 37.8230084025 20.1336941276
71 1 -1 2.08324390397 47.1527807017 0.700737921669
72 1 1 24.8668030719 29.5971592356 30.3534377493
73 1 1 6.95753483626 21.6068431656 46.5256086724
74 1 1 20.9994379021 43.6904479647 22.1001282547
75 1 -1 10.8693963875 4.84156108537 22.3198072256
76 1 1 22.3287254969 11.8321329337 15.3285094318
77 1 1 8.16806783793 7.56930083442 11.9599514797
78 1 1 27.0969166665 41.5182066837 5.40678285806
79 1 -1 17.0430368924 42.0020370855 6.72118410861
80 1 1 27.1780797478 4.28415552256 25.7971708354
81 1 -1 45.3745005962 6.14123554797 2.760532743
82 1 1 2.03573653534 39.8419060142 41.5216943996
83 1 1 1.70978824298 21.1982864805 37.8095365506
84 1 1 24.0245716113 8.980763367 18.2556406541
85 1 -1 27.0553526603 25.6232523144 1.48534667229
86 1 -1 18.4263902157 24.7174969516 6.53497497192
87 1 -1 30.580123297 23.1751514902 4.22802312506
88 1 1 26.6453165537 4.35395065333 46.2540935172
89 1 1 1.91253618352 29.3234949533 44.8390006552
90 1 1 35.5888206979 23.5872681363 31.5639182306
91 1 -1 10.1537804486 18.2464312245 1.34335884295
92 1 -1 45.6354240509 20.3302177096 5.64538251441
93 1 1 33.5373930198 36.6922140991 24.5665572954
94 1 -1 5.47609769013 42.2966498217 8.30665012273
95 1 1 40.4485762043 24.1134207284 24.8460921734
96 1 1 15.8001879692 30.3512914904 12.5736017739
97 1 -1 33.7323998539 14.4516577526 10.4460598803
98 1 -1 40.0047171456 13.5603872557 37.1242678637
99 1 -1 36.7345125635 19.314789564 21.8066816416
100 1 -1 13.1367303042 5.93338206354 0.496187804709
101 1 1 41.8892032764 18.6773252655 16.5911717288
102 1 -1 13.3686711066 25.4457058674 34.2934966053
103 1 -1 20.3246082561 41.2321391922 16.0239433681
104 1 1 7.40168671307 36.5663526618 25.8531783572
105 1 -1 5.96410624236 29.9700395354 2.36501151315
106 1 -1 5.81889963229 18.1262338596 9.82591386336
107 1 -1 14.2118485706 8.57224379689 39.2415608262
108 1 1 15.0855095289 8.16022001825 9.09634088848
109 1 -1 23.3852466887 25.0610058656 24.2121290682
110 1 -1 13.436135902 17.5592375567 30.7125240945
111 1 1 24.4132461135 22.4779128887 41.2949623193
112 1 -1 42.9222451091 46.5979219259 38.8961452528
113 1 -1 29.1816122222 1.4348851878 27.8101230673
114 1 -1 18.2083632477 6.75323709998 10.564713273
115 1 -1 10.4644685649 40.5216737929 9.60678712367
116 1 1 1.13206294497 13.408917521 10.8690539519
117 1 1 41.7534290345 32.3300710463 19.6377117072
118 1 -1 20.5415712875 42.7886865692 14.4825174159
119 1 1 19.6905338644 16.2437215705 42.0293703167
120 1 -1 1.29281454674 30.7201504106 28.1010559897
121 1 -1 30.8678283594 16.1234271318 27.1098053426
122 1 1 34.9661498791 40.7981756594 10.8569330868
123 1 -1 8.78417066902 19.6802726824 31.5475298215
124 1 1 34.6539605681 2.17636579284 47.2311078763
125 1 -1 36.8185176657 41.5342422697 33.6362150384
126 1 -1 15.834905892 23.9461849488 42.2603130021
127 1 -1 18.7195905001 26.49590722 10.8607629001
128 1 -1 5.10098192534 42.5008745584 6.81337089916
129 1 1 43.2847593238 36.3070823294 45.3798977002
130 1 -1 14.262216266 25.0279033832 30.259445757
131 1 1 6.76324358701 24.2573819768 36.253600195
132 1 -1 39.4139769725 26.5683151474 30.7026606884
133 1 -1 35.6393172361 4.58215748589 25.5947832327
134 1 1 8.11644472578 31.734313891 44.9071035742
135 1 -1 45.6181647859 36.4534360574 19.5372058731
136 1 1 39.8628698306 24.5260442801 12.8114612122
137 1 1 26.1077290187 32.886812535 1.85491499005
138 1 -1 31.2343794819 10.3476592676 8.77190027116
139 1 1 42.0020096406 29.4107967068 12.144831096
140 1 -1 45.0078117694 0.590004524198 3.51393129308
141 1 -1 38.8768305561 31.6887492309 6.6925632903
142 1 1 3.41331430486 8.35879140894 42.8885749189
143 1 1 4.04625595847 19.5367716336 32.4775842445
144 1 1 40.1658051482 30.0276151212 23.0085560679
145 1 -1 19.6414152194 11.6352832251 19.9953476019
146 1 1 3.79864558839 1.16493398294 24.5138898709
147 1 -1 8.33772461843 4.62452984247 27.3894042778
148 1 1 15.9506309855 44.1660641488 40.0075959907
149 1 1 6.34617372098 20.4440099722 0.300388274816
150 1 -1 7.29080064716 16.8294227279 8.3052366733
151 1 1 13.5834573426 37.5690874235 17.8597812396
152 1 -1 43.7570511714 22.2665842125 15.6924771764
153 1 -1 25.576542003 43.9696321385 29.9960380436
154 1 -1 47.1583186055 27.0713495996 37.0140237504
155 1 -1 24.2590822507 18.0758073232 45.0521032989
156 1 1 26.1930843724 4.92755632599 38.0199361236
157 1 1 32.5197835004 10.7027175538 42.5540072265
158 1 -1 36.2141238119 38.222348998 8.20015553859
159 1 -1 29.1554222778 4.40210545819 21.4503899548
160 1 -1 40.4726583444 16.9097515455 32.2716016581
161 1 1 21.0822976277 32.4571589229 39.6759696018
162 1 1 29.4327180973 13.4030247978 30.8484540064
163 1 1 15.4898608375 40.4229231446 26.3841905803
164 1 -1 22.2212866272 29.2010132634 33.8491756859
165 1 -1 8.4193610312 22.3898549959 47.1732943275
166 1 -1 35.4978081775 30.7985200086 35.2637968876
167 1 1 27.7148719281 6.71203660397 10.6177891137
168 1 -1 35.2023819982 20.3387832925 15.9762158679
169 1 -1 47.2764376345 4.64843192626 0.558819880589
170 1 -1 24.6351130731 19.7106921128 45.4412804535
171 1 1 21.5786261003 0.798715943484 12.256840967
172 1 1 42.4750607376 0.172954152023 40.4267558005
173 1 -1 15.2605828864 3.09115988303 32.2652326607
174 1 -1 45.6200426205 45.2879862614 37.4880342488
175 1 -1 31.9679059649 18.5171948662 44.9081669374
176 1 -1 22.1445621767 35.5805317434 34.6632679772
177 1 1 39.1753429372 1.90630583329 13.8521900194
178 1 1 31.9204188255 19.0231218407 46.0304870221
179 1 1 41.9722852218 27.7164457449 31.7539532546
180 1 -1 35.1911138344 20.5274012629 3.52462685112
181 1 1 7.31143395103 22.8410143707 47.1029501745
182 1 1 19.5273161824 43.7600145265 23.4044393659
183 1 1 31.4422435752 30.9016318045 28.1417918423
184 1 1 15.2932287039 30.4714579232 46.1146419453
185 1 -1 47.4910280909 27.1852946437 27.3125035054
186 1 -1 25.6991772801 15.6087775572 47.2173173667
187 1 1 7.9030545385 25.8249095711 38.7578502959
188 1 1 33.7430203064 39.592429477 30.1163055899
189 1 1 44.7529684892 37.024233836 36.1823187203
190 1 1 0.420978920664 28.9612464462 6.06050922503
191 1 -1 23.6747861051 30.7558134019 2.48260127834
192 1 -1 11.4873746549 28.9540778646 26.682785199
193 1 -1 37.54419102 46.1671322525 24.9752439812
194 1 1 47.9651250261 26.7452494039 45.1541504962
195 1 1 40.0879999807 29.595249629 1.09061082019
196 1 -1 10.6551829741 32.9957108826 11.6190960323
197 1 1 14.7055569928 10.8982686559 25.0027362858
198 1 -1 21.9665995613 18.5918192398 7.49797136627
199 1 -1 45.5842202072 43.918015714 2.85734930915
200 1 -1 4.3515236926 24.3294093726 10.3278926959
201 1 1 29.8793101662 15.2029178141 29.9914458037
202 1 1 6.22454249951 25.9700737108 4.09031964951
203 1 1 7.28347929523 7.12051978196 7.60721394531
204 1 1 10.9193141249 31.2166354553 39.7393279776
205 1 1 9.98536086766 47.565346237 17.6210333293
206 1 -1 7.18191126072 33.8643948257 12.4434789331
207 1 -1 15.8249641992 18.5860056911 12.9771773058
208 1 1 10.3000814976 25.0071095092 3.38328756195
209 1 1 22.9912972497 29.317144827 8.68103027655
210 1 1 16.2993403164 5.28432093351 11.0976984485
211 1 1 47.9826053473 23.974063294 26.9878724593
212 1 1 29.679907387 25.4415144913 9.2229040767
213 1 -1 16.5922758684 12.8762305925 32.0501875772
214 1 -1 38.6765231744 19.6030105423 40.5101021829
215 1 1 37.415585407 43.136215667 32.212472019
216 1 1 18.1889704394 5.35874327247 36.5601452341
217 1 1 45.2612245414 40.9301362754 25.2987661503
218 1 1 6.52045401858 20.6294145022 2.17092502017
219 1 1 47.7200134749 13.0303254562 47.6791928779
220 1 1 18.7447478965 32.9445976966 6.54906893475
221 1 -1 46.5156709812 32.5476924155 35.3853841335
222 1 1 15.0662239454 37.5051904542 40.1920532519
223 1 -1 16.0788041141 11.8140021814 47.2575286863
224 1 1 9.87240818097 42.3797293394 16.6943568964
225 1 -1 8.74013177847 0.495807809125 26.8533924714
226 1 -1 8.86914493603 37.1491651529 29.2547663958
227 1 -1 7.3053603793 23.6960180792 43.7455189852
228 1 1 24.5191455812 22.4441583706 45.663121539
229 1 1 9.57304784621 20.9144318286 47.8783740188
230 1 -1 44.5902110662 10.6711662252 1.69172857894
231 1 1 2.1530174598 16.2706721142 46.3371783274
232 1 1 42.3008008938 34.1685181812 7.55384420177
233 1 1 36.9198281613 15.5183743791 21.6239125575
234 1 -1 34.8139513852 0.120848149521 39.1005571312
235 1 1 40.2605137839 15.3696171527 22.9113873449
236 1 1 46.9931557429 33.6642332367 8.7779664106
237 1 1 35.1125628041 14.2252332786 0.951933642325
238 1 1 23.6651442994 9.50894684782 39.5828403289
239 1 -1 2.40127646881 42.137030057 22.593743737
240 1 -1 46.525918296 35.7115028186 7.27589483981
241 1 1 29.0050800611 42.4761794639 13.7724545543
242 1 -1 7.39367369653 10.3803919989 14.2448658726
243 1 -1 15.3028747298 34.9923896037 30.7271036229
244 1 1 43.7115465902 12.013366488 6.89197152201
245 1 1 35.8315920842 40.5122521529 23.3329413318
246 1 1 0.8028328487 24.9764747001 6.31743153274
247 1 1 32.9388942851 39.1842862288 14.8126622767
248 1 1 10.3991895528 30.1601306971 12.6903673051
249 1 1 11.3211934841 39.6858334886 4.46544961508
250 1 -1 21.4738681794 26.3177134646 39.3395304346
251 1 1 30.1125943885 44.1217999398 2.31838259756
252 1 -1 19.9982337693 26.926353148 27.753498421
253 1 -1 24.8327553349 6.42497411092 26.840239035
254 1 -1 36.6197544137 5.02911577018 2.10839676586
255 1 -1 8.28274689573 32.2624987324 17.9548676752
256 1 1 29.497128028 31.3778236488 26.4532748892
257 1 -1 43.069531502 15.1067140876 18.5463021324
258 1 1 27.8452923367 39.3250194314 41.1435018732
259 1 -1 4.78970104887 15.4199485534 22.0093588857
260 1 -1 10.6335366127 43.474869486 33.1199139228
261 1 1 44.3885819992 32.0395370119 23.0601011378
262 1 -1 23.6995292438 33.5087701806 8.95122031494
263 1 1 18.0029750688 26.8651876105 44.4190930814
264 1 -1 41.9297332581 16.0436583677 29.9929103869
265 1 1 44.0894535062 6.49229885377 25.0697849393
266 1 1 9.78094673448 20.9965596438 20.7534774496
267 1 1 34.5756658633 29.680380726 1.88361913145
268 1 -1 18.3896705681 29.6306824073 25.1744573027
269 1 -1 27.1963704351 30.7727238173 23.2401073903
270 1 1 13.3860495001 37.9810277264 5.17528705152
271 1 -1 25.7827512785 27.7061169366 40.8041621107
272 1 -1 2.17835004904 15.3577220948 11.3135447167
273 1 -1 26.0532102345 3.8768931878 4.15383483989
274 1 1 1.04526874065 29.7598434715 42.0361664314
275 1 -1 8.69030815358 24.7152435847 3.74534710753
276 1 -1 30.8647789947 39.2498520572 19.936648389
277 1 -1 5.70961504172 3.85349550961 43.8911016285
278 1 1 10.3093353547 45.2589130555 11.531722177
279 1 -1 8.56933121168 19.0365904384 5.90518517695
280 1 1 28.2831259363 47.5486512399 0.631175592576
281 1 1 14.6670213251 24.9294652196 35.5106092327
282 1 -1 14.1759252748 12.617016748 33.1608978953
283 1 -1 47.1978111314 27.9431626201 47.1626418654
284 1 1 5.99948194089 15.9400013574 36.5084320496
285 1 1 31.7126754508 42.0792155923 26.762678368
286 1 1 42.6014170444 9.87726935637 22.3124603113
287 1 1 2.49399828086 18.1706319871 8.74332928129
288 1 1 44.258369828 7.1412833252 33.8820654483
289 1 -1 19.951496507 25.1476898612 32.9854408898
290 1 1 14.37627423 42.1131105063 42.7111267702
291 1 -1 15.041089071 14.8695302361 14.0333368636
292 1 1 41.3971593708 41.4280315338 0.382845309737
293 1 1 21.1369075772 16.4175717429 18.3415744847
294 1 1 11.5877553292 42.3233295699 18.7582832618
295 1 -1 11.2908940993 10.4293135265 43.0743627509
296 1 1 41.9712274901 23.8597113382 4.45772476166
297 1 -1 16.2955227457 7.62064062724 17.3403025734
298 1 -1 12.7056576039 13.3133735036 9.30193810994
299 1 1 33.9682298487 13.2350221541 28.0965288539
300 1 -1 27.7617583255 25.8843666782 5.7739022405
301 1 1 32.3436139448 22.3657874744 37.3978373965
302 1 -1 10.9786443946 18.572510081 14.3320258162
303 1 -1 22.1629890591 23.0438301464 31.4807574441
304 1 -1 17.8771272208 27.3593508518 12.0604935989
305 1 -1 33.7634403233 46.1209605225 13.8404040366
306 1 1 46.2316270115 22.2387505853 4.33736634306
307 1 1 33.7178254973 9.03594143472 2.932286139
308 1 -1 28.1399661646 44.847568035 14.0821109095
309 1 1 0.251382298167 35.4202860341 40.7400918482
310 1 -1 34.4866033725 19.0304663882 39.2692941392
311 1 -1 14.3919877408 20.1056310164 24.7999786411
312 1 1 30.4037379391 22.6058815415 44.5623150038
313 1 -1 44.803370261 21.3017000976 47.4063813299
314 1 1 7.29287487164 38.7152029574 25.8849230704
315 1 -1 0.6341851825 45.4029861011 45.0174852245
316 1 -1 7.90643469824 32.5635230792 45.6534487597
317 1 1 43.8477689948 23.6133046693 44.4328195996
318 1 1 30.0696612996 4.31183165369 29.4393224919
319 1 -1 14.1454706959 16.43650527 29.4498096203
320 1 -1 23.7561369062 6.07403305792 41.4317615233
321 1 1 0.656820571765 9.78181290364 23.7217848426
322 1 1 13.7729162706 13.544248925 14.8311433863
323 1 -1 44.3673591011 40.7252278713 46.4970912227
324 1 -1 1.54997941882 16.9494886596 16.1665243392
325 1 -1 4.37788531194 46.8475224465 38.6539526915
326 1 1 46.0909498712 18.446535113 7.10548766143
327 1 -1 46.3937313321 26.5392597001 29.6338812038
328 1 -1 22.5469002844 20.272652418 42.032233237
329 1 1 9.73615768296 40.0756614936 18.8185611331
330 1 1 31.4595927306 10.4022168011 10.9401434381
331 1 -1 21.0891280195 0.775356321571 31.3521774822
332 1 1 4.37457363578 2.9071262522 33.4628902837
333 1 -1 18.0699275881 26.699257328 16.5443829356
334 1 -1 46.0119776681 38.3135550171 4.73354105795
335 1 1 32.963957112 10.0492867256 25.0891249911
336 1 -1 7.82736453513 9.93012036429 46.0293950333
337 1 1 30.1867434928 23.3007450099 21.5302494674
338 1 1 37.7881643814 28.808610667 27.4394071816
339 1 -1 36.5795135737 9.22440848112 15.9293946234
340 1 1 45.0898800991 8.89246821937 34.056443632
341 1 1 20.7550033446 16.6892750337 19.0260570074
342 1 1 6.20341729152 37.3868684517 18.875584917
343 1 1 17.0862996502 36.5437201646 0.536142015886
344 1 1 14.5143991657 47.5259380304 40.9341219958
345 1 -1 46.9673668964 26.5718299211 4.20843987313
346 1 -1 28.2543462827 15.2785371537 6.118917552
347 1 1 10.8498102949 17.0588737018 43.2882850299
348 1 -1 21.8991166223 13.686950135 19.8970282639
349 1 1 10.6275368245 44.9297376471 20.3750497071
350 1 1 22.2872418195 26.7571879729 36.8273333413
351 1 1 43.8714050578 17.0539238163 37.0430488537
352 1 1 26.4304125398 35.9178230732 19.1461231639
353 1 -1 28.786836893 29.7519841879 29.4185118431
354 1 1 24.3833476602 8.75299814538 26.7445007545
355 1 -1 40.1724150008 9.42202516948 12.5765156072
356 1 1 11.7205090582 30.4632751768 45.6229635933
357 1 -1 15.7525727096 41.8211763448 47.7056744397
358 1 -1 6.99525364364 45.1475480332 44.296365459
359 1 -1 38.8289573736 19.8837338199 16.7174492415
360 1 1 34.6432045628 9.41170437464 11.4395335111
361 1 1 41.2561567665 45.1423615241 23.0585895884
362 1 -1 25.4552616353 27.4897038583 2.56008237369
363 1 -1 43.7387675615 21.9406603927 17.3766042127
364 1 1 37.8323004807 26.2345526724 18.1444487174
365 1 1 9.73809578621 42.7059385084 40.9554612832
366 1 -1 3.92745338287 6.39834742538 38.258675778
367 1 1 4.44676364106 2.96337963973 3.08343038807
368 1 1 16.0795856591 0.223703913531 9.68900249946
369 1 -1 21.9602677823 31.7166499318 25.3295800146
370 1 1 47.9148930441 3.58362568004 26.9941954037
371 1 -1 35.6973008375 4.02257187102 42.5752983768
372 1 1 23.8191938372 18.3247296313 46.2361269029
373 1 1 45.547436304 1.78638441486 34.6731044309
374 1 -1 47.8382053813 41.4730032421 5.00397033738
375 1 1 10.462079086 41.1713502952 27.8730281213
376 1 1 3.87847187801 4.37562994561 44.8403795981
377 1 1 26.1308677989 37.2611730945 5.63457742844
378 1 1 8.81985881129 30.9919580638 4.89610172526
379 1 -1 34.5333399018 32.4091536464 40.1657782749
380 1 -1 27.8209784009 12.2497551202 31.2615946464
381 1 -1 7.73921315592 0.949367240158 13.6322845791
382 1 -1 42.328670115 20.7372974675 46.7533505249
383 1 -1 32.7368274298 26.5534954567 38.0791832693
384 1 1 7.34151313405 33.8142927309 6.01658983653
385 1 1 7.17184860154 38.5897868578 4.85767632377
386 1 -1 34.7526197853 13.5525191352 38.6958295203
387 1 -1 30.2362400902 12.9299286473 36.4851295799
388 1 -1 41.6772710174 35.2752405013 17.6982761719
389 1 -1 32.8247254247 3.62179858082 34.9761038401
390 1 1 42.0369342568 16.0135087415 1.69893609908
391 1 1 7.18565543097 14.9073552076 17.2325433138
392 1 -1 25.6530002944 2.57604786485 0.888586553361
393 1 -1 36.5260917953 38.7082271811 21.0588025653
394 1 1 25.4477565961 47.4090756474 32.7956069809
395 1 1 44.4516089685 21.4060943141 24.9296057451
396 1 -1 22.5905479953 9.9345610302 5.98438508345
397 1 1 30.5014325279 46.073302751 4.99008610579
398 1 -1 7.5853584881 18.8644438325 33.1185486398
399 1 1 14.3293298597 34.49409632 36.923116418
400 1 -1 44.7930870969 18.3406341195 5.2273813057
401 1 -1 2.08736352753 40.3351307094 45.5003142786
402 1 1 37.7525772925 23.0915211059 2.55417208032
403 1 1 44.1618860189 15.8619091914 36.5233401197
404 1 1 31.8600050822 39.8861687134 3.37749468102
405 1 -1 3.61154281333 35.3513926322 27.3644912536
406 1 -1 18.9253314524 31.1689852724 19.9365469234
407 1 1 3.27493711845 13.4665614265 8.18044769835
408 1 -1 20.1809997363 29.8581949097 44.3532876996
409 1 -1 45.8879772944 43.3175550573 36.3733766883
410 1 -1 38.0565642385 41.6230376754 9.63535582987
411 1 1 10.7756166057 0.763175891006 8.93939573354
412 1 1 1.24323540432 3.06523128206 11.2704136089
413 1 -1 23.2653229016 1.38158378315 11.3202981655
414 1 -1 27.760109512 33.3247578351 2.48825562596
415 1 -1 37.2030626084 31.7399015813 1.84685120737
416 1 1 3.90743094423 3.99360167967 34.4278557299
417 1 1 5.30117788844 45.9141649468 21.0167810592
418 1 1 24.1958678771 4.27946973823 41.9277187705
419 1 1 26.9807164631 2.97956161607 27.6990959208
420 1 1 32.0119241535 24.6990709042 6.91963902982
421 1 -1 44.7810991862 46.4105448429 36.7454989377
422 1 -1 37.2751536618 45.2438986111 24.3757405897
423 1 -1 35.7280575989 34.6634116294 38.81505794
424 1 -1 36.9395931885 44.9256695036 15.3596998815
425 1 1 4.97002648449 26.7742698009 19.4875342587
426 1 1 12.1401362983 34.4793941396 20.5785638955
427 1 -1 13.7751991687 4.66209582657 33.6488971272
428 1 -1 7.93702053728 7.56948974247 27.774122922
429 1 -1 4.54127078274 47.8280485153 32.7886169187
430 1 -1 37.1678386688 44.8000762823 13.968314214
431 1 -1 32.9141458973 46.632599306 36.3123957376
432 1 -1 41.5056999873 22.261531007 23.0032013724
433 1 1 0.462368011855 35.2088488386 10.2618262547
434 1 1 9.40733745178 21.6361191127 45.444717554
435 1 -1 13.3841196344 30.1199752154 38.1104206708
436 1 -1 3.47565511308 12.8280398582 45.2167419418
437 1 -1 41.6528394161 20.7251734637 34.6281918286
438 1 1 37.2211008435 31.3954692618 35.44232836
439 1 -1 25.9150073312 32.8052054287 45.1262076926
440 1 -1 8.0792504331 39.2560760073 15.1445216991
441 1 1 30.8531938286 7.10822249042 23.5758549373
442 1 -1 39.7023749075 17.2593219976 33.1764802404
443 1 1 1.14688128207 39.3114130348 10.170520614
444 1 1 35.6935846375 10.1850646063 36.1248153994
445 1 -1 28.718487636 38.5842962668 23.9978091487
446 1 1 22.2205000777 44.9920410764 19.7436926234
447 1 1 2.73388146656 41.8731500643 3.33393405873
448 1 1 20.899190261 7.45776613717 5.1720925941
449 1 1 35.8992814579 32.3477766534 38.6190858046
450 1 1 43.9098661947 11.8083965181 30.9196535468
451 1 -1 5.75125641247 33.5117820984 22.2136521444
452 1 -1 22.5957508251 16.4077442681 21.7924022438
453 1 -1 11.5621041269 36.8299340537 15.7482400313
454 1 1 42.8037291396 7.11365035513 44.6397514626
455 1 1 11.174199789 10.0294416354 14.8365404789
456 1 1 34.9139812739 15.6277804315 30.433362242
457 1 1 20.4186389217 37.3832340558 6.60636067817
458 1 -1 32.0752904165 13.0835722925 20.6104461709
459 1 1 7.62075745913 23.5202049939 14.0969363766
460 1 -1 44.181930865 21.4449613829 4.55444408057
461 1 -1 45.1479189555 31.4231279521 33.8023404298
462 1 -1 27.7006272997 39.6742005585 14.3683425887
463 1 -1 21.1442460331 47.7446392706 35.2088362428
464 1 1 29.526069801 13.4735590183 20.800101959
465 1 -1 45.0352628452 37.3840495716 26.9333199476
466 1 -1 39.0802358626 27.1606022217 18.6560339805
467 1 -1 36.3876229482 37.6540677355 44.2134850004
468 1 -1 30.5783446799 12.2612942423 37.357773932
469 1 1 36.4173647971 33.1271006229 37.0382524451
470 1 1 24.8128093714 4.10730272178 19.6727738528
471 1 1 7.70622401683 31.3152968581 41.0753379179
472 1 -1 30.4351600249 41.1625458709 9.39224466296
473 1 -1 39.5705474172 11.6915145575 0.486890283132
474 1 -1 11.8330710293 41.5794341707 5.13068880616
475 1 1 47.2529908548 33.7305279932 24.359230847
476 1 1 16.0718494037 44.4441088696 37.9689986478
477 1 1 42.2897739853 17.8446809916 29.4055074348
478 1 -1 26.4239741833 12.4531419673 14.703564886
479 1 1 11.3761760771 41.4335548516 18.3980082944
480 1 1 45.9059987012 13.7860529789 39.3356723399
481 1 1 40.7378532633 16.9316238438 41.9910410363
482 1 -1 6.15322835578 1.11337127795 17.0329926275
483 1 1 23.6078933062 9.16141891685 39.82929506
484 1 1 25.1319098975 8.47429193458 6.24954918441
485 1 -1 43.3888270847 13.4134534537 14.3455530427
486 1 -1 8.06530928013 11.3294916899 24.7851709297
487 1 1 14.6462074406 43.5300520805 18.1681049981
488 1 -1 17.3819295686 39.6151174628 34.1972275188
489 1 -1 45.3200578155 23.5184367543 31.2672001905
490 1 1 26.5877820106 7.84930125943 7.06641689589
491 1 1 29.4623194347 10.9241852259 12.7411244941
492 1 1 21.0057628894 29.822681431 23.482397208
493 1 -1 28.5479683181 31.7434887995 2.34596611895
494 1 1 28.1288210965 26.9607659708 9.69892308794
495 1 -1 35.2251360355 27.9950089685 27.9273939775
496 1 1 6.85403676077 44.7505726897 29.7031466503
497 1 -1 26.8072839924 10.6127248727 45.9452408029
498 1 -1 1.80926043425 31.7453261301 3.01228295444
499 1 1 38.3647971564 13.2140359741 22.3894100752
500 1 1 6.99460279405 2.55230270553 22.2270489923
501 1 1 5.27672976318 21.5587495192 43.3176027205
502 1 -1 19.0988038967 4.03438892444 5.35263005777
503 1 1 16.0736025066 20.9670097482 17.6858204261
504 1 -1 36.1785717504 19.5161224359 18.5652309576
505 1 -1 17.6066781177 43.5228323596 14.4487203942
506 1 -1 39.6987937034 0.256812474449 27.7534161735
507 1 1 7.0169495467 29.4753080614 3.6109492411
508 1 -1 25.9455908229 7.62106912652 41.4749110041
509 1 -1 3.43216828035 7.42013242753 21.2014617555
510 1 -1 6.84151967455 38.3921124693 14.2320022674
511 1 -1 12.136315975 33.6427590224 36.3083692527
512 1 1 22.4543808292 47.9050062421 43.2303749998
