LAMMPS charge data generated for ESP error-estimate validation

512 atoms
1 atom types

0.0 48 xlo xhi
0.0 48 ylo yhi
0.0 48 zlo zhi

Masses

1 1.0

Atoms # charge

1 1 1 14.6385803302 47.1998762401 46.4815077712
2 1 1 16.772069014 19.3808867641 41.2905262792
3 1 1 19.4250567469 14.7108611683 38.5633517627
4 1 1 7.91191656626 31.917314182 41.8796598839
5 1 1 11.9909223057 9.68377893023 10.6266867201
6 1 1 19.6055791042 13.129204096 47.0243377872
7 1 1 11.500407992 34.2321486045 6.6774327893
8 1 1 5.74623143918 26.2156112787 36.6048638867
9 1 1 11.2799507031 0.951243012923 42.281959655
10 1 1 17.7099604186 14.2577732055 45.5029054354
11 1 1 14.7510777888 17.3725892789 27.9546019204
12 1 1 4.35082189653 26.8000279033 5.717828793
13 1 1 18.2668546987 46.9874849383 10.7703521454
14 1 1 18.2341884162 9.87041631756 4.14017246252
15 1 1 19.4804157127 0.579044234035 9.36634396534
16 1 1 14.3087925454 4.18610891779 16.6077630105
17 1 1 5.10739826066 45.7742949955 40.699324761
18 1 1 5.71561144161 23.2441924516 36.9657272112
19 1 1 12.0882832659 27.4412586911 19.5253588004
20 1 1 5.53045943591 31.6158500409 32.4589676218
21 1 1 9.67745665955 16.9051189267 38.929223396
22 1 1 11.4971558092 42.6542417105 46.7283092289
23 1 1 19.0044207111 31.5188466353 18.4445994072
24 1 1 15.151931158 31.2464865962 8.134053273
25 1 1 7.85218261287 14.6683406889 33.4973675669
26 1 1 17.7944600766 21.1728362211 29.7211905543
27 1 1 15.7440889897 25.1268488608 20.2231898102
28 1 1 15.2158336287 2.43683279504 36.1125831886
29 1 1 11.5520650122 22.0684976524 36.9993757798
30 1 1 19.0442588479 9.02505573567 27.3928886894
31 1 1 13.2631977104 24.582036335 33.8312990602
32 1 1 19.3018585672 1.36440229276 22.4666479496
33 1 1 11.7707691072 41.001547906 4.60983401157
34 1 1 6.64125622171 36.9102097147 37.7618065735
35 1 1 15.0726558129 9.80957860213 19.700651222
36 1 1 15.0538640679 26.4092508449 43.6366942803
37 1 1 7.31842331392 7.08477331325 27.4422707347
38 1 1 12.056673393 24.3552850125 37.0867444694
39 1 1 7.0042119496 17.4897845036 34.7717755894
40 1 1 15.8226480363 23.3641099002 32.6864160569
41 1 1 18.8429497971 0.531239718846 32.0281249887
42 1 1 5.21720575498 3.46816641733 44.8935842762
43 1 1 7.20085522214 41.4157558755 46.8815730535
44 1 1 6.76431576819 22.9017881698 21.8895465336
45 1 1 4.66412977301 39.6842646072 41.1512408816
46 1 1 9.42194504483 46.7689255115 12.4800796742
47 1 1 14.4299125372 35.9276831206 25.6352763704
48 1 1 11.0411514702 26.8748850471 10.7116705041
49 1 1 17.1289186833 0.408054278589 10.6927114958
50 1 1 17.0296458531 29.1167690395 11.3050506709
51 1 1 7.42111021515 38.6087410802 29.8667994002
52 1 1 11.7690291544 38.6042858113 18.0309011409
53 1 1 19.2100064834 44.7295049316 9.69200073532
54 1 1 8.43231738453 12.6387688819 8.18457710828
55 1 1 15.5570103372 34.0950707234 16.0187656748
56 1 1 12.1482520716 4.69867108354 25.8164448107
57 1 1 18.9279098508 17.4889339641 38.7939007979
58 1 1 16.1480168117 39.1663051127 40.5497001417
59 1 1 17.5643050721 26.037121869 41.871151762
60 1 1 5.77580248396 8.60360287069 13.1545601262
61 1 1 4.87161643774 42.1595086902 17.7592459461
62 1 1 5.95134447053 8.69468351145 35.258600256
63 1 1 16.5798132774 16.9118467872 19.6868353093
64 1 1 4.62779132429 20.0009294331 28.8396146669
65 1 1 8.09467429658 45.2049599792 0.882434558549
66 1 1 13.7828580233 10.6476993688 12.606121197
67 1 1 19.8817778352 34.7157869582 27.3921352714
68 1 1 15.3931400968 11.7692498084 46.1141181042
69 1 1 16.018697968 38.7340056167 28.3136839996
70 1 1 9.85003801568 45.3762778716 4.36689140495
71 1 1 8.06374514723 35.1095916233 26.3161831434
72 1 1 5.52712513582 3.87212644291 27.0771573446
73 1 1 19.6520319838 4.02181763178 25.9251580022
74 1 1 17.803962869 45.3128591223 5.57835570984
75 1 1 13.6787124617 8.51215157878 8.30405235725
76 1 1 6.46649724252 15.538605054 25.1046643887
77 1 1 12.6748325175 44.3330144341 12.9049296541
78 1 1 10.3444777288 11.954029882 10.0625994594
79 1 1 12.9569738206 12.6510248634 47.6623937846
80 1 1 12.0292171373 33.1670403335 17.3110218664
81 1 1 10.7980701451 30.492128951 0.563853398013
82 1 1 10.9710546227 6.37829735748 43.190202446
83 1 1 19.2620077112 29.4024766882 30.5044590539
84 1 1 9.40373646057 14.8477551556 21.7060417818
85 1 1 7.73941746523 1.13202238297 18.9334656764
86 1 1 7.16759622685 24.483536263 26.1901332892
87 1 1 6.2838412532 3.72971035415 1.02104409645
88 1 1 4.81314990865 23.772834224 34.3682894769
89 1 1 4.04396781428 32.203768831 8.20318220912
90 1 1 9.41557017839 5.84621622526 15.719098297
91 1 1 13.9441029524 14.7724146206 45.7585484122
92 1 1 8.69986764767 43.7763652412 26.3197078943
93 1 1 6.02991688894 44.8821820735 12.084803102
94 1 1 7.78950333725 6.86103571386 18.9077859512
95 1 1 13.9278335653 3.52783557339 15.4648418509
96 1 1 17.9376029242 10.0034369899 34.6759605137
97 1 1 16.9841480376 38.1700460372 4.96004660717
98 1 1 12.0050915229 26.6734563448 27.7568151905
99 1 1 19.7718205225 38.4874160793 12.4062510275
100 1 1 5.41517241969 38.3586493267 10.0086828041
101 1 1 15.9977285211 42.6105555405 5.45378708117
102 1 1 15.8950752784 44.9097498098 9.01806494746
103 1 1 11.1733563985 31.233122599 3.52536505468
104 1 1 10.4203857131 0.773566879205 35.0383095818
105 1 1 5.95500358379 17.5273306441 24.4358920749
106 1 1 9.8596626244 44.1134893216 10.6014314641
107 1 1 19.8319518779 16.8144118616 17.2494950022
108 1 1 16.5767618675 30.4156190401 29.1081158183
109 1 1 4.67466485087 26.0033714304 32.4316474474
110 1 1 5.63638037791 38.063414874 29.3186252516
111 1 1 17.763290373 37.5912806218 28.2191113756
112 1 1 4.37776176901 4.51074838759 24.0735230119
113 1 1 6.07105701346 16.0241589557 37.2154890679
114 1 1 18.4305648484 44.172774666 13.3469682447
115 1 1 11.1704060213 7.45450426765 39.0536750881
116 1 1 9.64837712783 18.1591303006 21.9746417641
117 1 1 12.5757963069 35.5981786739 31.2875266841
118 1 1 16.2906333342 46.1452127001 0.204238252274
119 1 1 4.96804180045 28.0879833644 10.8738897696
120 1 1 11.0136293578 47.2791362211 4.14849499208
121 1 1 13.8558495019 3.63261146249 27.7484017742
122 1 1 6.03406087991 44.3969867358 6.71309270897
123 1 1 6.92918410851 31.2727692082 46.9612480042
124 1 1 13.3532573479 36.122613688 12.4169106116
125 1 1 12.1911145436 8.46483260037 24.0215895599
126 1 1 15.5794135106 11.5194679471 8.52795765817
127 1 1 7.3680181998 25.0057001709 3.50163548973
128 1 1 15.441378337 8.12703397062 41.0614917492
129 1 1 19.2941863318 42.605215555 31.9510029296
130 1 1 6.09595831787 19.8787821692 38.8386067016
131 1 1 6.12665650725 44.0772154018 5.91062840916
132 1 1 14.0737627646 0.426624811227 28.6531044332
133 1 1 11.6709401253 34.575427122 0.570263233
134 1 1 4.08986888771 16.253549833 28.8917691323
135 1 1 12.7820197878 18.2828464449 37.6187037863
136 1 1 9.29934742733 20.1578583276 40.2413721212
137 1 1 9.10358989779 45.9775019039 30.8852099058
138 1 1 13.3380059335 4.54415797132 31.6970270067
139 1 1 11.673297526 27.5861562147 6.17844463506
140 1 1 12.0924193775 3.2072441956 35.0081171456
141 1 1 5.47496781009 28.5973874723 24.9245077001
142 1 1 10.3023930547 3.21074095938 35.1907680128
143 1 1 5.19219131443 9.3576259892 15.4111430344
144 1 1 18.2227831867 15.1269683947 12.9840006415
145 1 1 10.4367493527 7.66226482966 47.7796867113
146 1 1 18.0337042749 14.2138267859 25.2902551833
147 1 1 9.40758409863 3.57757695622 36.0990534642
148 1 1 16.7158962394 12.093564082 5.71601548696
149 1 1 16.3120806305 4.58464571241 32.7828886543
150 1 1 5.70298387727 12.2731341434 14.6892406423
151 1 1 10.4833453102 26.1928654386 2.47671287657
152 1 1 17.3236474432 19.7292228975 18.760754887
153 1 1 13.3672708944 31.1273521034 27.8797442045
154 1 1 13.4656587403 24.3612713435 1.02312451491
155 1 1 18.1132997899 17.1360074186 27.6557760945
156 1 1 17.6101660166 22.1220546425 17.1654188959
157 1 1 18.6325791874 1.47285795457 39.3910523176
158 1 1 12.6144330047 26.5746987273 15.1988465393
159 1 1 11.9357616422 44.9270057061 14.7830744973
160 1 1 9.16790057505 43.8027531618 10.296001115
161 1 1 10.22418667 27.1099079572 45.3427751522
162 1 1 11.7072945689 10.4228074759 10.0922428643
163 1 1 14.0048400581 8.18013184433 37.7946581024
164 1 1 14.0226357648 21.9874184363 6.85328366019
165 1 1 12.8119197536 41.0927770706 33.5904682217
166 1 1 18.3483073532 44.4098616778 35.586997851
167 1 1 5.16971902955 11.7567679917 0.973207203765
168 1 1 17.5408760428 27.3934924381 31.1050277562
169 1 1 15.5566712466 18.4707042427 22.6936741558
170 1 1 14.6270654791 29.7536941046 8.04070837125
171 1 1 18.6560095096 38.8267838655 37.4599251337
172 1 1 8.68434691288 24.9792551841 0.206608379572
173 1 1 12.3854855854 11.4369659608 21.1540067827
174 1 1 10.0514722699 18.0680831364 32.3595823476
175 1 1 10.3292438144 31.5080060008 39.8373114104
176 1 1 10.0263829286 9.46038172111 8.26031412333
177 1 1 16.6431283241 13.5766745628 25.6573665549
178 1 1 7.85469641834 1.94620754056 19.820259961
179 1 1 4.86119587265 31.2616288201 14.1070888574
180 1 1 18.0426618852 32.1122057239 31.7240151818
181 1 1 14.2778703518 31.8980234596 19.547207732
182 1 1 6.96383838217 24.7947429275 3.17546222878
183 1 1 19.7548232896 22.2804916693 4.5805565362
184 1 1 14.4565256143 5.28692967509 32.0046919642
185 1 1 13.0670415004 5.44958061004 13.7454972909
186 1 1 10.6340298336 23.3444084814 26.8513542283
187 1 1 8.32870070752 6.25109238046 14.2839431249
188 1 1 4.18650933677 4.38657610229 26.5007790429
189 1 1 19.338876119 20.3285449788 35.3855126956
190 1 1 8.88775995042 38.5656871423 34.3222910664
191 1 1 16.2804897994 4.22273028739 24.2268975339
192 1 1 19.4893202373 16.6822046768 35.8796502585
193 1 1 6.19998839336 0.289454802441 41.4598653786
194 1 1 12.9796325685 29.1651574159 23.4847940158
195 1 1 12.8835997263 40.0052811063 35.0726414352
196 1 1 4.17002486577 27.7060798888 29.3840818567
197 1 1 19.3398052525 0.939950483923 33.6356814814
198 1 1 15.7495362798 22.583716629 24.9205714347
199 1 1 19.8597669743 6.86535462596 35.2602357803
200 1 1 19.9367009121 40.2628180991 25.4065408827
201 1 1 15.3775086466 24.5876140653 0.563254042163
202 1 1 5.510134265 39.9754143362 24.2704454377
203 1 1 8.99002907507 30.6506045492 25.0028980853
204 1 1 13.5257464189 39.4097671184 29.4399893472
205 1 1 15.4194299294 32.0035803623 47.3756553283
206 1 1 13.8326241107 19.3161881097 21.4312521367
207 1 1 17.1626597307 0.448563723741 47.2156755094
208 1 1 13.9500676329 7.82852366305 33.2785683746
209 1 1 19.5250048781 27.1833325022 46.9215214071
210 1 1 8.62345273338 37.6528873848 13.81942576
211 1 1 12.5140756535 15.8097617924 14.2579702475
212 1 1 4.04103403307 29.3056829739 23.4325926511
213 1 1 19.1673238471 20.7810639051 37.1103479387
214 1 1 15.1080083607 42.3759131617 22.267763275
215 1 1 9.86504703541 6.94653165361 29.4659647601
216 1 1 3.85354073039 28.9868848947 10.225849548
217 1 1 8.15518016445 16.7829197576 8.34592332941
218 1 1 14.957020456 16.0147288462 24.3984613156
219 1 1 12.1515139757 42.4657411648 9.36753080045
220 1 1 6.98248271374 6.11648388034 7.32039900714
221 1 1 6.34142242276 14.3263984782 6.8222858405
222 1 1 8.82746906606 46.7759962645 41.3824731115
223 1 1 7.86495785172 14.5386479506 18.8832167883
224 1 1 9.71587537818 4.82466460464 35.3161939258
225 1 1 10.5189442737 39.9406317575 44.9717145864
226 1 1 13.2217870595 42.9247931511 28.6763397767
227 1 1 11.5364554403 18.0213479184 24.9183452841
228 1 1 16.2850257105 38.5358410223 32.3707083398
229 1 1 16.8582510028 25.9524041045 24.102907091
230 1 1 16.1250121545 3.31476328946 30.9636078061
231 1 1 10.8259730156 19.1041078882 4.31836818445
232 1 1 13.4912617731 1.34468263553 6.86835316946
233 1 1 8.1240009134 31.962993142 13.3085097703
234 1 1 10.7030295781 32.0592220231 46.1242283009
235 1 1 13.6222521112 13.6977616283 42.5908531719
236 1 1 10.8427612004 3.38387233137 10.5005333453
237 1 1 6.42935162683 33.2805537664 32.6601978112
238 1 1 7.7421999575 7.83656758587 4.15893675841
239 1 1 17.4807013339 7.23828145523 12.7711164026
240 1 1 7.91012101 37.8615684139 30.8625622665
241 1 1 12.2219826028 21.9389377253 5.23871050088
242 1 1 10.5165906087 12.4888255183 3.80517996407
243 1 1 16.6470912168 19.1123538875 43.469374419
244 1 1 17.8278318353 4.59462064078 28.2364601876
245 1 1 14.0461111735 1.25925316388 28.0649473624
246 1 1 13.4735279419 15.0174288757 40.2000395215
247 1 1 6.71333298994 31.4681584095 4.85984994227
248 1 1 8.73034957543 3.62052582706 12.5330494521
249 1 1 10.5637687997 35.543615414 1.67971288462
250 1 1 11.5796892148 43.2599202135 9.72345416676
251 1 1 19.1633866809 10.517881453 42.2007841463
252 1 1 16.3467247409 8.42661888898 28.779617927
253 1 1 11.7786120517 4.13026351848 33.5036845205
254 1 1 13.792060165 42.7759830174 40.1889168303
255 1 1 4.42942255747 10.687198422 17.2482688833
256 1 1 19.0226620115 29.6054789687 2.65855238266
257 1 -1 32.7799560498 24.2862786146 19.9657268269
258 1 -1 36.4131540249 6.34204621133 32.5909723085
259 1 -1 30.513513458 23.1852874888 18.3255942344
260 1 -1 42.882375582 29.9372628425 9.54695659454
261 1 -1 30.8363250364 26.5982500104 7.24301529342
262 1 -1 33.0027231242 13.2185677047 28.9705734766
263 1 -1 30.8493407036 15.2341492854 27.4513627632
264 1 -1 36.4321196813 13.8739233224 15.8691392685
265 1 -1 29.0961131496 8.71421949142 43.3993706005
266 1 -1 37.6292042243 9.43236465036 41.9514174405
267 1 -1 37.9348596804 0.180161929109 25.1146556175
268 1 -1 31.8043820722 2.31966478349 2.57563702001
269 1 -1 28.6051515828 43.1105863918 8.80061909629
270 1 -1 29.7259987523 45.6112737733 16.8399627709
271 1 -1 36.3808978335 13.2251540191 15.2149022065
272 1 -1 37.5703304879 22.0111303981 18.3537381188
273 1 -1 41.7222099207 44.9980071012 26.8314779492
274 1 -1 39.2569286384 16.7250260903 18.7046171478
275 1 -1 32.9122514818 47.3763092839 41.5407060892
276 1 -1 37.973029231 34.555998358 17.9024272008
277 1 -1 36.7564497029 43.7073603009 45.7372185987
278 1 -1 29.4938409678 11.2040837635 10.9653718753
279 1 -1 33.0632576929 33.2519625005 19.8445984138
280 1 -1 42.5218769876 1.93090224807 7.47190261508
281 1 -1 36.0704770148 27.114508813 29.825368858
282 1 -1 43.0451040188 34.109760173 10.8302433762
283 1 -1 42.662413866 3.1301432227 20.4224695513
284 1 -1 34.6620659826 4.5252562028 28.892140804
285 1 -1 32.4524445927 25.6614295798 40.0358573778
286 1 -1 38.461335663 19.0959960478 23.4037101783
287 1 -1 40.8069770513 25.5204151507 32.1506897759
288 1 -1 28.1752984861 0.680484889403 21.087007553
289 1 -1 30.8161742428 28.2698894079 21.5610023292
290 1 -1 43.8497806131 42.3636493371 15.7366357569
291 1 -1 34.5891642122 9.19061516578 5.90641293475
292 1 -1 39.7756999111 42.8839682819 9.43274586965
293 1 -1 30.0626370941 34.7280542633 20.7837066445
294 1 -1 37.3469774452 16.4100349432 47.5317073425
295 1 -1 29.0025840077 0.49183838158 7.45518634548
296 1 -1 37.4698199009 37.305109689 31.6230977198
297 1 -1 41.589355403 11.4464699349 6.15119892968
298 1 -1 30.9730696707 35.9997553734 5.09442848759
299 1 -1 34.8961690766 17.782928314 20.6118413559
300 1 -1 33.9311997235 22.4069939185 27.9188117285
301 1 -1 38.1269164128 40.3695063974 33.649945301
302 1 -1 27.9965657424 2.76981731602 7.06104610969
303 1 -1 28.1967273108 35.3133224822 40.6489603857
304 1 -1 39.5322377432 44.6699253066 46.4564368953
305 1 -1 39.2169484166 40.6153813266 43.3813663156
306 1 -1 28.5474209219 4.036952868 12.084703986
307 1 -1 42.5122166898 21.8714999659 4.89224043099
308 1 -1 30.5241953503 38.719245469 45.0959281847
309 1 -1 33.2478874401 5.79789285028 9.61951617478
310 1 -1 39.8916726379 15.0348987522 37.4457686728
311 1 -1 40.4969399216 26.4087075873 25.2791095678
312 1 -1 34.7556981586 43.3906384071 45.5542001109
313 1 -1 37.5265525002 17.4989561843 17.4791261816
314 1 -1 42.2486273284 47.0717591109 23.3579052037
315 1 -1 43.3789422737 38.7207120135 14.2709811889
316 1 -1 29.8475137318 15.7648858034 3.13323492167
317 1 -1 39.9890504016 11.157026965 47.1914289182
318 1 -1 40.4429677974 42.6835406919 0.701302692444
319 1 -1 34.0658645827 8.89238136818 3.4351417203
320 1 -1 29.7453602618 6.08505167416 40.6091928797
321 1 -1 43.4162873599 1.27190000898 24.737149484
322 1 -1 32.0569459258 0.378677947295 32.3294229638
323 1 -1 30.1830149097 31.5801804979 13.5851412326
324 1 -1 43.0305614299 24.2644282149 4.24350252129
325 1 -1 42.9040862656 22.7872853105 10.7863781628
326 1 -1 32.3362988862 18.06454702 36.8855849191
327 1 -1 32.5230061054 25.6147362616 3.06932232104
328 1 -1 37.0148755521 35.9965437444 4.86312599725
329 1 -1 28.0633933295 0.258339588954 45.2473300641
330 1 -1 33.6369951444 17.5508797776 2.41678287675
331 1 -1 33.2984527264 9.20931837855 41.702859878
332 1 -1 43.4738372488 23.2820465958 25.8420232532
333 1 -1 30.7733639412 45.4227782769 27.5890131708
334 1 -1 29.9531341422 40.716770419 39.5236877851
335 1 -1 42.5570607132 45.4199312212 5.16341589121
336 1 -1 34.5256890163 17.1924710797 34.1104528073
337 1 -1 27.9500207213 38.7280586044 45.7512970609
338 1 -1 36.8184543906 43.6038411638 1.42205060418
339 1 -1 37.2854764556 1.52277450012 19.3815924911
340 1 -1 36.778987986 26.9054075109 12.8051706014
341 1 -1 32.3014777753 38.6533287325 37.426108668
342 1 -1 38.6836817188 32.269275656 26.5681032379
343 1 -1 34.9478086922 40.9800245242 11.5552318418
344 1 -1 35.1051017815 27.4100241604 6.98325623042
345 1 -1 34.4513471133 17.011211294 22.6130244028
346 1 -1 29.0362463346 38.0235147088 29.4512358296
347 1 -1 37.0441828018 29.1805600767 13.0256125158
348 1 -1 38.5871315582 5.37312028096 4.37716969785
349 1 -1 32.0653895967 21.3382681594 44.122901704
350 1 -1 29.8705631489 13.3261164463 8.75894509321
351 1 -1 35.7521268343 20.8674757394 14.5135784081
352 1 -1 34.9598564471 32.5502110645 7.26001126903
353 1 -1 35.0276497681 30.7388335867 38.0547699483
354 1 -1 41.7557053505 22.6120771209 28.963217934
355 1 -1 39.4807223603 2.68646028219 15.0324821535
356 1 -1 34.855540588 32.3463991295 20.9587011976
357 1 -1 34.6374694872 5.48790466708 38.4874739115
358 1 -1 32.8269858769 33.2310272811 15.8246997268
359 1 -1 32.3328872891 13.9220759124 27.4826253568
360 1 -1 29.7808388225 8.53835118606 41.9721141073
361 1 -1 36.3982939245 40.921167784 8.88474910029
362 1 -1 35.4240521306 38.202255886 28.7450510918
363 1 -1 43.6199469281 26.503416599 28.0315312108
364 1 -1 31.1113471767 4.7822682889 5.17081436462
365 1 -1 39.4366240096 39.2044654421 41.8607316068
366 1 -1 40.0415937726 12.8060811524 21.4142350793
367 1 -1 36.8766778241 25.9335414248 23.0772788323
368 1 -1 43.1135155637 15.0467736254 5.68653280983
369 1 -1 38.5564430398 42.3443097664 35.9097078046
370 1 -1 41.2174030024 20.2621935867 28.6707356233
371 1 -1 34.6761800258 17.2618080494 15.1674753023
372 1 -1 42.1445837847 41.2165667831 14.578112665
373 1 -1 39.4327341133 46.7177910137 6.839180954
374 1 -1 32.7348328256 25.7773252198 14.2340439606
375 1 -1 36.6949779228 46.8325528671 47.088422166
376 1 -1 31.6317207035 15.1343694642 15.8049080725
377 1 -1 31.1062772044 45.6190048105 24.6625211325
378 1 -1 30.4412592593 20.1358814996 34.3159760901
379 1 -1 36.8837418001 5.16468270126 47.0286707617
380 1 -1 30.0097750635 6.56497313175 8.13283776846
381 1 -1 34.7978855786 15.3619241681 21.5063101388
382 1 -1 41.754934278 6.77659793358 47.6115417809
383 1 -1 28.8720448047 4.15016723643 38.7678005935
384 1 -1 44.1187954742 30.349362103 33.2240072705
385 1 -1 32.7757525705 36.4274383393 3.40663511137
386 1 -1 27.8408503865 35.3583632035 47.5958858867
387 1 -1 39.1466856611 29.3286396933 27.2815325275
388 1 -1 37.207975291 1.20516335064 24.9692830375
389 1 -1 31.3927377247 21.0124803607 1.35091206758
390 1 -1 40.1111887513 44.7863343565 20.0799710184
391 1 -1 28.8321995293 24.9908928814 37.4284189009
392 1 -1 38.451755152 37.5370358407 46.4131700784
393 1 -1 36.7506560929 47.3371876594 17.1790049297
394 1 -1 30.4068933343 44.3749877258 15.5202706507
395 1 -1 32.5296705392 13.5305825187 2.16181730645
396 1 -1 32.2442424253 18.735830306 2.68942220216
397 1 -1 34.5998786636 29.6358987789 28.317456385
398 1 -1 36.2349510692 28.7714561032 27.105238101
399 1 -1 29.1285870329 5.90079016461 14.032376606
400 1 -1 36.8499543228 1.64969684751 21.1990349148
401 1 -1 30.5364061023 24.6319603815 0.237362210001
402 1 -1 42.8706848471 45.5245587414 41.1491578497
403 1 -1 34.122410144 21.3294513538 21.3977896217
404 1 -1 32.4252473707 22.2803261338 18.1069503634
405 1 -1 40.5024167016 42.1460210829 43.8038761871
406 1 -1 38.4673723592 17.6270301084 2.45026537657
407 1 -1 43.0349435412 19.7558603833 18.3385146263
408 1 -1 32.987652562 46.8671032066 31.9675518523
409 1 -1 28.1207272857 28.6587516036 31.205357975
410 1 -1 40.800072429 6.16452233497 26.5335865992
411 1 -1 34.9077000862 47.6293896233 2.30937276604
412 1 -1 33.9433513623 24.4081414512 26.9223590152
413 1 -1 39.3092231067 37.4244823439 1.6632252578
414 1 -1 36.2245776238 27.4032030742 17.7083601497
415 1 -1 37.5018503858 42.6865839373 26.2485366868
416 1 -1 42.6189644667 14.1442251443 20.9666224439
417 1 -1 37.9368333031 5.6237651113 47.9717201037
418 1 -1 30.7863271586 10.6323768745 7.81839768917
419 1 -1 34.3181347672 21.6233245748 12.4134960265
420 1 -1 32.0027199923 46.8454060413 13.8198115172
421 1 -1 43.9327940334 31.3642051643 0.649544176845
422 1 -1 39.164983009 42.1383471964 34.41496236
423 1 -1 30.8508339011 43.8289218915 16.081360322
424 1 -1 43.6831441369 1.52212747977 10.8979636851
425 1 -1 39.3391425476 34.3542754041 34.0204373226
426 1 -1 30.1792676413 37.4302893821 39.1724826615
427 1 -1 39.7905960407 5.63871543467 27.4251388713
428 1 -1 32.4639418837 2.80917363563 5.47883200722
429 1 -1 35.5568573914 7.67354674325 19.5563807495
430 1 -1 29.9893006781 32.2617476428 28.1798326144
431 1 -1 42.1944118198 28.3995201394 16.6719714116
432 1 -1 30.5335552657 18.2453724515 38.5285485026
433 1 -1 32.8323792104 25.8262231993 34.7751050771
434 1 -1 36.4639386697 20.3421309065 38.568827988
435 1 -1 36.6288412238 10.8623229786 12.5160319364
436 1 -1 41.3380776276 40.3298981927 13.2091346069
437 1 -1 31.8691643128 12.3920909439 27.2107198043
438 1 -1 41.6025289509 28.9865019927 3.48097563384
439 1 -1 29.8923472571 12.5019682327 22.8144997851
440 1 -1 33.5379250189 2.42179131539 20.8347268863
441 1 -1 31.5972725662 32.5372761616 31.5603730511
442 1 -1 42.960215168 2.64107601178 14.3439801773
443 1 -1 28.962485143 17.7193144522 38.0176937967
444 1 -1 28.9945029473 17.8214043096 26.9596133726
445 1 -1 41.4367589618 30.6882644276 29.8016534727
446 1 -1 42.5865825304 10.8117402848 3.66712204742
447 1 -1 43.9849471483 3.12727567069 4.28877749514
448 1 -1 41.0353627479 47.3477668066 14.8882989418
449 1 -1 36.8823273911 40.9530606911 5.47323117549
450 1 -1 39.1027408099 18.2073844974 15.653632821
451 1 -1 40.3776261073 34.820007224 38.1705777688
452 1 -1 32.0931924636 23.2484638452 19.5396549498
453 1 -1 33.261370549 17.3366010637 28.0711051616
454 1 -1 37.0821261777 44.2679123461 12.2755014118
455 1 -1 40.9164999648 21.6157358215 26.3108736665
456 1 -1 41.5731552033 13.1850002465 22.0172085991
457 1 -1 36.8563632811 33.2493019268 39.8919646579
458 1 -1 43.375364751 39.2124651516 45.2151641726
459 1 -1 42.4064832678 41.0551294431 45.7746006793
460 1 -1 38.9209650517 38.0659441575 42.3106933655
461 1 -1 33.741289393 1.54695772505 45.4550359303
462 1 -1 42.9366532993 1.56869510121 28.6755298726
463 1 -1 36.8982757234 27.7313345994 37.7497163526
464 1 -1 27.8980143212 29.0621620774 24.9369692468
465 1 -1 28.3776907495 36.290761831 6.3416895396
466 1 -1 39.9774698177 1.05095616767 39.0416270004
467 1 -1 40.2776638996 3.52131063085 32.9278119994
468 1 -1 42.2320787919 20.0905109147 2.62467080956
469 1 -1 40.8413554854 39.8669522645 14.4246772525
470 1 -1 40.4059929817 42.4952134161 17.4659006467
471 1 -1 27.9104014774 13.327020816 18.5806524708
472 1 -1 37.8864616669 14.1246058137 20.2112091577
473 1 -1 40.9002416758 46.5060142085 13.0834674356
474 1 -1 28.8149562368 34.1829289607 21.3030061935
475 1 -1 39.9982770757 3.77470717939 1.49519764761
476 1 -1 33.3774693539 5.87353167793 16.0228612814
477 1 -1 43.6101661006 39.0168628977 12.9831733437
478 1 -1 35.76329388 14.9755644786 15.2179462414
479 1 -1 35.8695095227 16.9228162157 7.08444191335
480 1 -1 38.3706530963 14.9670229762 35.1464797916
481 1 -1 43.2991981008 3.91765751153 15.5397739413
482 1 -1 41.0862896979 42.434157744 17.2631715266
483 1 -1 43.3787465525 15.7037188504 31.4201630771
484 1 -1 33.1784514807 29.2968401926 42.2212151439
485 1 -1 32.1255203173 44.397119229 21.5606331008
486 1 -1 32.8620968796 26.9470137778 30.1219195132
487 1 -1 40.9056918798 14.7215319803 17.0728294699
488 1 -1 31.210936664 41.7944092512 16.9199772998
489 1 -1 34.8310326694 6.47420550751 2.95792369684
490 1 -1 34.1400131346 47.368362188 42.2006312522
491 1 -1 34.0248696718 42.7386857726 19.3198867886
492 1 -1 41.3931458557 37.8741558611 13.7195481565
493 1 -1 33.566801543 22.0338373798 17.0897602887
494 1 -1 31.184936012 21.9260557648 46.0718077532
495 1 -1 39.7556123944 42.5500254833 46.8673932347
496 1 -1 30.721186932 0.931500632385 4.73211487078
497 1 -1 29.8881100026 21.1985961517 47.9586907047
498 1 -1 29.5601707756 21.8916996194 31.720171318
499 1 -1 39.5256809616 38.5538303325 38.8302875386
500 1 -1 40.6413579118 30.9760328753 27.6467101783
501 1 -1 37.4600936692 0.853997885266 25.6929089781
502 1 -1 35.451317975 28.8537848436 3.6903186379
503 1 -1 43.6133213186 2.70464907145 4.47423467974
504 1 -1 33.6937346269 36.7908336423 21.1790167772
505 1 -1 39.9429342401 24.0743428616 18.0323881859
506 1 -1 39.0899289892 2.10594433335 15.481698055
507 1 -1 34.8793507163 22.8259868948 43.1902276809
508 1 -1 30.9137748639 37.4348729572 37.1791353592
509 1 -1 40.6614203866 13.8114611422 32.0287944388
510 1 -1 40.7400597476 38.2043428586 22.0412584615
511 1 -1 39.8072656287 0.726647687022 4.39042577071
512 1 -1 37.7437344778 43.7503501943 37.0254852647
