LAMMPS charge data generated for ESP error-estimate validation

512 atoms
1 atom types

0.0 48 xlo xhi
0.0 48 ylo yhi
0.0 48 zlo zhi

Masses

1 1.0

Atoms # charge

1 1 1 15.4175913032 11.55805976 24.8370477866
2 1 1 13.6206581348 15.8812958607 2.33573710451
3 1 1 15.315944555 29.1254873119 8.21841470577
4 1 1 11.3286464777 34.0966505541 26.482880651
5 1 1 4.4245824869 36.2575026023 10.215750627
6 1 1 19.5110070171 15.971666495 34.6417851919
7 1 1 6.43008077868 35.5139032697 46.8328562724
8 1 1 9.68312463728 26.9395674745 4.97665412047
9 1 1 14.527305094 19.2168490952 26.1827623121
10 1 1 7.62905512853 23.5745737467 41.5348509746
11 1 1 9.7701552032 46.7002474425 19.9522964803
12 1 1 8.52068787421 9.9222604992 40.7546171669
13 1 1 13.6888941527 13.438810072 28.1634253154
14 1 1 13.2371962351 31.2866963376 18.351274604
15 1 1 6.31139565727 45.1678538091 43.1257926601
16 1 1 19.8316898614 17.5096068383 41.2687692905
17 1 1 19.4736399857 28.4887883347 26.2193857836
18 1 1 8.88241047027 6.04373344043 25.6043661909
19 1 1 18.3842991054 0.0851305862004 34.1683116076
20 1 1 6.92339025894 21.0691755139 20.8124344567
21 1 1 19.3763696305 2.60484758619 43.9101870346
22 1 1 4.60295569754 11.6591118641 30.4835526428
23 1 1 15.1104856189 13.9360895958 3.53521184909
24 1 1 16.5297653687 25.4720302228 30.4106891598
25 1 1 8.40092923317 13.095852435 17.1570690098
26 1 1 17.8481837175 27.552900175 0.904210504943
27 1 1 13.4701172381 41.1068115964 0.444285149207
28 1 1 9.73735443211 22.0044962548 14.0263533807
29 1 1 6.41601846395 8.16933818794 39.9225015853
30 1 1 4.38287874658 33.8971562485 44.3351478537
31 1 1 12.3068163324 19.0046897056 0.764109253507
32 1 1 14.2734887078 25.1489972988 18.7684160114
33 1 1 9.22796977384 20.857181521 37.7173565115
34 1 1 18.6680089689 37.3938309017 19.9372939624
35 1 1 16.2697776099 40.0514785977 4.67733901751
36 1 1 11.4389438867 8.91208000673 47.9236435336
37 1 1 9.64917061918 36.2293343255 25.0886640077
38 1 1 12.0046535827 5.98664220548 4.82764759442
39 1 1 9.02928546349 41.5630348696 7.60869501906
40 1 1 8.14466213844 46.0899953211 3.57419162913
41 1 1 9.03328873127 2.86495752926 45.9393050136
42 1 1 15.3711275961 37.9516574308 6.76228373518
43 1 1 16.2705233649 35.6430770292 45.680502124
44 1 1 17.7683939266 13.0632940384 4.69460115618
45 1 1 10.9785533369 20.2115605678 19.6489783121
46 1 1 17.1046247711 1.26843178448 26.3302135576
47 1 1 17.5624864173 19.9349354078 36.3569046167
48 1 1 10.9025847961 15.3869419394 1.40692207227
49 1 1 15.2841570654 21.9216544623 17.6737188815
50 1 1 10.3202783133 16.3506709664 26.1685337856
51 1 1 17.6841576179 17.1568336681 17.8518804832
52 1 1 10.8027393047 35.6490786119 22.7825303752
53 1 1 10.454419157 25.6643999108 19.8006043403
54 1 1 8.66793523888 2.88775656612 17.8057413008
55 1 1 17.6252221912 43.7784631306 19.3983119587
56 1 1 7.6377120743 24.292038359 46.7362024313
57 1 1 15.4675898174 43.0703256094 3.37224948687
58 1 1 7.84265897371 46.3354340711 15.9828771139
59 1 1 8.14078575372 25.4904530234 30.5880179616
60 1 1 14.7935586612 18.4230976242 6.78822419208
61 1 1 10.4231536546 4.02550855505 10.5246113401
62 1 1 12.338556651 2.24004560345 29.9672441711
63 1 1 20.1323221207 28.1331240665 39.4229490774
64 1 1 13.2027482926 35.4562738973 24.8988752698
65 1 1 19.570192416 40.9135814334 35.2713749668
66 1 1 19.5874696149 8.78118758028 5.22265006165
67 1 1 18.2538854354 10.260384355 39.7012425134
68 1 1 12.4186189747 17.2896700044 19.2870821952
69 1 1 9.46010347786 42.5023475226 41.1388398522
70 1 1 7.31361793831 29.7992956681 4.85948035943
71 1 1 18.8770639779 14.1153692455 17.1287790876
72 1 1 4.6255924786 2.49835744437 43.0797322527
73 1 1 14.166006818 13.8678897205 25.1471076152
74 1 1 11.3660998358 46.3181461766 26.6298528324
75 1 1 8.98627677681 13.1946497421 9.91205696565
76 1 1 15.7611599885 5.67239456002 36.5987548889
77 1 1 5.85864321904 44.2324846145 26.1344265002
78 1 1 5.0779272002 21.0100471355 44.3475671101
79 1 1 7.28844325304 1.35995697252 37.7310348186
80 1 1 12.9947875007 47.820602341 25.9865157811
81 1 1 12.3094423318 11.4267558475 33.7813192641
82 1 1 17.2618084294 17.4273532516 23.3176628707
83 1 1 19.9668386714 1.56936508241 38.5341625665
84 1 1 11.5161679196 30.2172836207 38.9821205825
85 1 1 10.7745604244 22.8181742372 25.6046043953
86 1 1 10.2303320793 6.02183014322 44.7317497151
87 1 1 14.7052672425 38.5717492247 9.54475165808
88 1 1 18.0469123414 38.7616797635 35.1953999059
89 1 1 12.8130407156 45.1461307411 22.5770548698
90 1 1 13.1217969194 5.72094436798 28.7267883102
91 1 1 7.82095327032 38.7195983436 21.5274402085
92 1 1 4.03884479891 33.230826743 30.222127009
93 1 1 5.34942397251 37.8427148288 17.43628149
94 1 1 15.1535778109 7.7301744359 39.9011812238
95 1 1 15.817838784 42.7788221616 38.5339887761
96 1 1 8.65279415221 25.4262151763 39.0986804358
97 1 1 10.6149840047 37.2817140348 15.0655784338
98 1 1 10.7052475172 19.9893236002 25.498407599
99 1 1 10.4647536692 0.464887958826 42.4679242416
100 1 1 18.3075708797 17.8880902254 43.0818694686
101 1 1 6.55963199118 15.8810580538 4.35785096908
102 1 1 11.6884515777 44.8098345696 19.2740064717
103 1 1 15.2959510293 42.0581258877 27.9987445627
104 1 1 10.1960703842 0.873506296631 4.98030829787
105 1 1 16.7619082562 7.02736744444 12.2054910476
106 1 1 18.6572585328 2.96606978059 20.0061754359
107 1 1 5.81806839941 41.2056194901 0.0724605734391
108 1 1 11.3682750491 27.1646751807 36.5644027522
109 1 1 6.70022291745 10.3803373423 46.2917822755
110 1 1 10.5578400062 30.9480152993 1.45972103764
111 1 1 10.0906016565 23.2946829989 5.57106058615
112 1 1 9.93821977758 46.3270888263 21.1761934335
113 1 1 9.307448825 47.4466511674 4.94323500041
114 1 1 13.4577056375 9.52733784104 12.498983863
115 1 1 18.4515699072 26.5308115864 1.41017002749
116 1 1 6.67367040109 18.7363320972 38.8186296606
117 1 1 6.03229611026 18.8612881464 0.20398121825
118 1 1 8.25841331282 1.81530915599 41.8732790954
119 1 1 5.47992003891 9.28874280517 29.6438808253
120 1 1 9.09553198266 30.8797252995 18.901200206
121 1 1 10.3346808357 29.4268605908 4.24244295526
122 1 1 4.22379457505 35.3591259634 10.7453121238
123 1 1 17.1823354784 7.88044775761 10.2781322302
124 1 1 14.3207427403 18.966207326 15.5044935643
125 1 1 16.0109280757 23.4344711594 11.4037519317
126 1 1 10.7113625321 39.7453785457 18.2427491249
127 1 1 4.26594626133 31.4092465709 41.06132143
128 1 1 16.7561767474 7.36339261722 45.8226714413
129 1 1 11.1360538097 26.3386020476 37.1224657407
130 1 1 13.0370345469 47.0419131904 29.0865890564
131 1 1 12.3607865906 4.14343643041 19.477842624
132 1 1 5.28692595949 44.2439581455 17.4901006003
133 1 1 6.31921541271 6.67256710036 33.9635682806
134 1 1 12.9676098869 1.11653150119 21.7501692784
135 1 1 11.048965791 30.0261304642 36.2022727452
136 1 1 8.96651506364 26.7023354183 16.0103696705
137 1 1 17.972063249 33.7199028051 35.5286373739
138 1 1 5.39009800041 11.0381712908 45.7467294253
139 1 1 11.8121763123 24.080351274 14.6786027185
140 1 1 17.17389967 25.6131438136 40.5082393921
141 1 1 5.3688627638 39.5208371707 16.427666315
142 1 1 6.20324426755 14.7613121198 2.05512637734
143 1 1 7.4527837601 43.6293208367 24.041454307
144 1 1 17.8522415711 43.091645766 14.6716439376
145 1 1 6.96808606271 33.295144952 1.28736124844
146 1 1 19.9372027531 14.261637458 15.5795373401
147 1 1 12.9536321442 46.4120701438 5.95265824533
148 1 1 7.92846755952 13.2211304474 17.650123326
149 1 1 4.37141045705 18.134415475 20.7088288469
150 1 1 8.88275007169 37.7298729584 16.482077119
151 1 1 11.3090919537 3.82171435406 0.35249331755
152 1 1 4.95514602567 21.9651831635 39.4241827785
153 1 1 15.285796455 21.5456348034 36.6044644643
154 1 1 14.9898528446 35.7634230298 34.4072395592
155 1 1 12.8137626039 17.1106916801 43.2542447644
156 1 1 17.8739988649 45.0305106393 5.05361421606
157 1 1 18.7222368825 14.7474707004 35.685227865
158 1 1 8.58644327137 4.4630147399 33.1022788506
159 1 1 8.34061946861 22.0456846066 40.0065577393
160 1 1 7.87252772865 4.12189520655 7.5680383029
161 1 1 18.3570588023 22.1982151067 6.18401741268
162 1 1 19.4428974916 35.0881673993 11.4385133544
163 1 1 17.0894643956 39.3647512955 16.4829547389
164 1 1 8.79496415199 4.99890323734 13.2805601316
165 1 1 10.226870685 32.3232095704 30.863091748
166 1 1 4.42862652255 38.3905676638 22.3344308226
167 1 1 8.40785651446 21.4435622391 0.988021471803
168 1 1 13.2311986317 0.516155799929 23.075633374
169 1 1 7.95481373871 14.7463842689 19.7928057515
170 1 1 14.277572963 22.3948194014 27.8843371124
171 1 1 11.5766582303 4.37290895641 2.40013784401
172 1 1 7.75131597992 21.3018563232 42.7516815858
173 1 1 12.1953061783 0.648930090083 36.4434152904
174 1 1 14.843997714 39.783984939 29.7266690179
175 1 1 8.69828085941 35.1465924472 5.85622713863
176 1 1 7.8900883863 26.4652697254 46.8115084125
177 1 1 14.2845284348 3.67210029689 5.81657805386
178 1 1 13.6554463299 45.5247510101 45.4283756994
179 1 1 17.5756843926 15.5388854563 20.0034385061
180 1 1 4.59640578986 36.2557904744 23.0874205282
181 1 1 14.8521880738 11.100814981 31.3704920385
182 1 1 17.4598983384 5.30686950022 26.5153941028
183 1 1 19.5616751833 32.6554459962 16.6012490915
184 1 1 10.9073478993 19.9768377857 18.6969749585
185 1 1 13.3793688652 18.857575317 25.6182563018
186 1 1 15.9688369627 29.0982084484 25.4012940879
187 1 1 16.087724454 42.7973552724 10.1032048227
188 1 1 17.3232012484 17.0995233318 33.0147853467
189 1 1 15.051578741 47.2623581383 10.6166878236
190 1 1 12.5712084793 44.0334431396 37.9686035332
191 1 1 17.0039750589 21.0165293415 46.67759504
192 1 1 18.3158647163 10.1312408216 0.663095170265
193 1 1 16.9779268952 17.1469967626 7.74020805358
194 1 1 6.52773302725 46.0516289174 6.89795653087
195 1 1 3.93179146586 26.4386080229 21.3562484113
196 1 1 7.10505040509 36.7555541132 14.5191594386
197 1 1 9.27769618824 5.59036521597 45.2348941716
198 1 1 8.46798906717 23.1189727252 12.7097507023
199 1 1 19.9677558832 16.2779365112 13.1516230107
200 1 1 8.54991742167 45.7728468838 22.6973220549
201 1 1 6.24932865609 8.4733755328 7.01425915921
202 1 1 7.28566001766 15.8698994287 46.2216774404
203 1 1 4.77794521046 25.2072528409 28.4467735351
204 1 1 9.68474139197 36.6708766533 8.26217615082
205 1 1 3.85250009624 3.85871404774 25.5776664847
206 1 1 5.12875565569 24.6440420963 11.1891620852
207 1 1 20.0567602725 43.97368821 39.6394541597
208 1 1 9.34311314121 35.0562390582 9.39440609515
209 1 1 19.0491739811 39.9691079242 36.5539198962
210 1 1 14.1902434831 22.5869554738 44.3382087206
211 1 1 10.7617172209 9.5425281494 40.1368062641
212 1 1 5.48609378224 10.2942700816 40.5582223509
213 1 1 19.8502441254 3.93435213315 27.9313704447
214 1 1 13.0868032142 13.7781844072 33.9375757143
215 1 1 14.3789112245 4.0594067451 41.2909078827
216 1 1 17.597420303 11.7954410177 32.5952743669
217 1 1 7.59600405988 36.9062107498 40.9587514714
218 1 1 8.19760580617 23.0744280282 37.4918445754
219 1 1 12.5918082963 10.9142366218 21.5278692974
220 1 1 4.97287554158 3.47462546935 43.7692206432
221 1 1 16.0339813198 3.18017301771 2.48525107459
222 1 1 7.7981724201 39.7827809928 35.0954484435
223 1 1 5.63629516429 14.0504907723 47.4943485164
224 1 1 18.527588696 44.8934460943 34.5953219666
225 1 1 13.5887852948 30.666024852 31.1720889324
226 1 1 15.433946292 3.61236228232 29.1415331156
227 1 1 14.7329170592 0.0207232085044 0.78330514672
228 1 1 17.4656102714 45.0214398049 13.6717622604
229 1 1 12.4340054485 41.6397232931 45.9268750189
230 1 1 9.20918682375 37.2180560455 33.6389813006
231 1 1 19.1844955306 7.02096172982 40.1656381636
232 1 1 15.7826287312 31.5802632377 17.3390054254
233 1 1 8.61574874919 15.1446610453 21.0552587018
234 1 1 18.5192501282 22.0372104912 46.3813886646
235 1 1 14.4272260839 16.0221059728 20.9365548514
236 1 1 16.1231381264 7.46029190584 3.30582365103
237 1 1 13.7007607183 40.1214746716 12.189274292
238 1 1 16.314182872 39.4462592486 19.039549134
239 1 1 17.4608348589 34.6558725961 20.3526643514
240 1 1 6.54380113344 30.2825849393 41.6398759016
241 1 1 13.8964764977 0.975160001841 14.5353306848
242 1 1 16.5587971051 30.1941497481 12.9872051016
243 1 1 7.22341798727 17.4554354983 43.1364744648
244 1 1 15.2081653924 45.0146311517 17.8038308759
245 1 1 14.5173834276 24.5090135381 10.2839936308
246 1 1 5.15218687008 20.1850365364 42.5395715588
247 1 1 14.2685612675 32.3791531513 9.10439778928
248 1 1 9.21267688026 38.8789301481 14.4467264147
249 1 1 9.05578055888 47.2870897057 21.4443546841
250 1 1 4.52467266325 47.8049334417 29.2490492139
251 1 1 3.88397146089 43.5718263613 11.8225418102
252 1 1 5.06661785751 21.9802169952 45.4701591056
253 1 1 11.4427001275 37.0414133799 11.8549859393
254 1 1 19.5562455347 9.87186420934 47.2977366679
255 1 1 9.12675257403 37.6876771121 31.8576462451
256 1 1 14.0638177273 44.7915166291 7.95103463988
257 1 -1 41.5689044768 26.6428056176 37.1215791874
258 1 -1 30.9154733933 38.7266216876 35.8472535504
259 1 -1 37.1392616949 29.0439828947 21.5070698494
260 1 -1 28.7215352884 5.71024645488 36.013058779
261 1 -1 40.5085118243 1.80288589383 36.4681043727
262 1 -1 34.4252008119 24.2779552642 40.7421479887
263 1 -1 35.2013415057 13.9569971904 42.1609858606
264 1 -1 35.3740121569 3.80310814074 8.88443660202
265 1 -1 33.6289679235 7.93525211853 31.1698715967
266 1 -1 42.934191865 5.57775999136 36.7295235392
267 1 -1 37.250601432 16.8286207603 24.7835530974
268 1 -1 37.3369567412 43.3106574351 31.215768732
269 1 -1 32.9746269012 31.5451520389 23.9375155552
270 1 -1 42.9592228492 15.9937328029 31.7979689559
271 1 -1 43.2720724103 26.8315630905 20.9354278194
272 1 -1 33.0253629006 47.5360574116 5.83734251511
273 1 -1 34.3349823107 28.8374336497 5.72147858243
274 1 -1 37.0478612939 14.6885175428 46.8791329752
275 1 -1 31.9460580111 1.61628808821 19.9087577933
276 1 -1 42.7136654775 36.92001143 20.074882751
277 1 -1 31.072147939 36.2422364575 18.9985521249
278 1 -1 32.9360410886 31.5417541258 5.5886728119
279 1 -1 31.8406785251 47.2836990966 36.7179241051
280 1 -1 39.1394294645 36.3741981684 36.7553933313
281 1 -1 35.0002892678 25.4198567566 16.6123990865
282 1 -1 28.2695805831 27.0233621412 29.4895061507
283 1 -1 29.3187154909 19.1004340651 43.9642064739
284 1 -1 32.0168010544 43.2380971187 46.2711949592
285 1 -1 39.8493118861 47.8652695091 32.8701900031
286 1 -1 39.1947030658 7.86296576252 32.2739055125
287 1 -1 42.2964088303 1.94712372072 14.9033468301
288 1 -1 40.965704509 25.2579254524 13.4520726969
289 1 -1 38.193653612 20.7324448712 2.19199116945
290 1 -1 33.6011692526 25.6727209857 42.8499002265
291 1 -1 35.9493423935 5.73567467368 10.0973555671
292 1 -1 44.0001136301 46.561602705 6.08199881669
293 1 -1 28.8937263941 35.9254372589 12.6659434159
294 1 -1 44.0567327908 30.8757530642 31.3870172694
295 1 -1 28.4285869398 31.8715150972 28.5624683486
296 1 -1 34.9762494234 30.1024142887 3.66886756207
297 1 -1 34.3379692656 14.4742954419 38.2194660882
298 1 -1 38.4726089216 20.6273219148 0.920348527323
299 1 -1 30.3803683969 20.1959347921 20.9917989331
300 1 -1 29.6318805656 36.356125874 1.76871567355
301 1 -1 41.7111636448 17.174482647 3.64044864862
302 1 -1 29.7385639046 28.9007451745 14.8923204374
303 1 -1 43.3084971359 20.2634090069 19.6678813202
304 1 -1 32.0224701304 1.83319248069 5.82327543077
305 1 -1 29.8070497109 21.7904103988 42.1428007591
306 1 -1 43.0675384775 40.1070875358 38.1983882412
307 1 -1 40.9275317561 26.2873869839 45.4120695921
308 1 -1 42.2687512827 0.371530703553 47.3134074068
309 1 -1 37.1585363331 15.8205633855 19.6436005792
310 1 -1 28.6162654274 3.68973172703 45.9450963129
311 1 -1 36.3453867853 25.5493916815 10.1423257754
312 1 -1 37.7749888204 31.4088643664 15.6786360056
313 1 -1 43.8776157448 12.5180506871 20.7656525558
314 1 -1 37.0525363191 20.843087053 0.922180913626
315 1 -1 30.0339311698 37.3948636198 47.7161546614
316 1 -1 40.8581265106 12.6140225683 26.3553357696
317 1 -1 38.4264592379 8.35670473182 19.8346732742
318 1 -1 35.4623994183 33.9861203871 3.49814845914
319 1 -1 33.3519916384 15.1479694162 11.6487570982
320 1 -1 40.8674257225 25.6286508505 11.771385864
321 1 -1 32.2799025076 40.0711035816 24.5759067148
322 1 -1 40.4147634697 2.50362832606 28.5882911088
323 1 -1 42.2661398606 11.5674049518 25.2153291879
324 1 -1 31.2495846495 19.3493334845 35.7154398297
325 1 -1 35.1201082502 10.2363892745 13.6615478748
326 1 -1 35.0921637099 45.4942816242 33.6484948643
327 1 -1 43.6635109791 28.7687618242 6.86103325293
328 1 -1 35.9351967625 47.3768771887 33.1139479047
329 1 -1 28.081257035 23.2652530859 5.45388938618
330 1 -1 40.8560619657 7.29490866062 35.9950003587
331 1 -1 39.0166408011 35.7832630807 44.2649734841
332 1 -1 29.7902095075 12.1779695675 10.9209058251
333 1 -1 29.886166189 39.0019476531 11.0798587923
334 1 -1 38.9891012459 28.865237449 22.4256604692
335 1 -1 35.3183837884 7.72255360651 23.8721248366
336 1 -1 41.6695412727 39.7343368587 9.21739105148
337 1 -1 43.2868138172 19.6470363126 9.68599713031
338 1 -1 40.0456273723 29.7008035522 43.1612781762
339 1 -1 38.5929223487 1.39275019175 8.17289120554
340 1 -1 29.295519417 17.0464550841 37.415130968
341 1 -1 30.6728372454 21.7377342996 29.3748548202
342 1 -1 40.605373532 18.7862545107 6.93863277412
343 1 -1 30.6267872797 1.39449218322 21.9742741544
344 1 -1 35.3989780745 19.5044464763 29.1520655236
345 1 -1 32.0773114486 12.4223731625 34.9757996859
346 1 -1 39.6363226599 5.11583569628 7.66195194157
347 1 -1 39.8236751587 33.2696831485 39.3014569783
348 1 -1 37.76235027 32.9793550218 3.00905333876
349 1 -1 36.0310614266 36.5524578193 10.0976162755
350 1 -1 38.0149259136 26.4849844458 10.0749152926
351 1 -1 33.5480846371 26.3955742194 46.8822206231
352 1 -1 41.4640154176 36.5203529881 5.03435926037
353 1 -1 40.5644981527 0.483334748812 28.8363370387
354 1 -1 40.4900777416 20.0219998854 1.69569368745
355 1 -1 35.7824969498 34.6010286296 40.4468945324
356 1 -1 44.0089421947 36.0291259269 13.7210425042
357 1 -1 40.1457401779 8.18235410456 32.6794906249
358 1 -1 39.0755246888 9.66840409869 20.5295820777
359 1 -1 43.219415742 36.4735613121 21.403161274
360 1 -1 28.2414853003 9.91423339383 35.3161170117
361 1 -1 29.0453567161 45.6522258972 18.894365868
362 1 -1 41.9422856504 45.3388828343 20.6921721037
363 1 -1 35.4176012973 28.7403885867 30.5106393418
364 1 -1 34.7234370376 46.6955683586 17.9378746984
365 1 -1 39.8388337074 13.4670426205 26.6606472406
366 1 -1 34.6638331473 4.57670396898 15.3369250757
367 1 -1 33.866421569 33.1597925011 18.2243484214
368 1 -1 33.0302284424 25.1213288515 5.54171125929
369 1 -1 37.3862635585 1.30750861653 17.199933823
370 1 -1 41.5264265751 41.3015494694 16.825475703
371 1 -1 31.5495381525 22.5658106993 31.2745163797
372 1 -1 29.1643051949 30.9758183363 8.58889041467
373 1 -1 34.4139954156 47.9328840482 5.50007227202
374 1 -1 31.3701056411 35.3710742097 43.1202050479
375 1 -1 38.3243603234 34.0358835503 17.2880280645
376 1 -1 29.7262850286 46.3426606953 28.7730890289
377 1 -1 40.5694545767 47.3695546097 24.5677991093
378 1 -1 35.8058499305 15.627302073 43.745567915
379 1 -1 41.8400716276 41.0720134797 47.8981031948
380 1 -1 33.7810503458 9.02795955188 26.6147013301
381 1 -1 43.0628754178 34.8897429492 37.5497783111
382 1 -1 30.0079272845 25.5926383588 16.8766814506
383 1 -1 34.6168004131 10.6930571711 9.23492934809
384 1 -1 33.7699101567 40.3311798289 14.3937861694
385 1 -1 31.9094773591 8.32997986797 44.3699270739
386 1 -1 39.5883669383 46.7169450286 27.4714352059
387 1 -1 35.7080161724 4.58451770352 29.6658808372
388 1 -1 29.0598910624 17.8098324445 40.3731428066
389 1 -1 28.3170226824 26.014304962 33.0968166891
390 1 -1 38.6885412318 5.61774753187 22.7211650389
391 1 -1 32.1368887425 15.4790772176 16.8386427876
392 1 -1 43.354569857 47.9452259239 20.6369063908
393 1 -1 42.6122312891 12.7182951899 39.0776123619
394 1 -1 43.9589315668 5.55242102541 1.59866661486
395 1 -1 36.4697828502 47.8539364071 40.9674785142
396 1 -1 36.5441403942 20.3201786223 41.9601977931
397 1 -1 34.104231942 44.0803350779 22.6853717719
398 1 -1 30.2764682624 15.3360100887 1.88703684248
399 1 -1 39.8424406407 6.86753160086 10.1763741071
400 1 -1 37.2367963093 44.076698472 13.4464029816
401 1 -1 30.2119608556 31.6985577207 8.16575708295
402 1 -1 41.4569534558 41.7840500596 20.2963692154
403 1 -1 37.3833472362 25.479039953 33.3868166966
404 1 -1 32.3899466223 12.1533583556 11.5700960745
405 1 -1 34.0036752241 10.2571089511 4.21082757531
406 1 -1 39.3463839403 35.5444321215 10.8772204071
407 1 -1 28.4760824208 31.8952486485 13.7717437953
408 1 -1 33.0712901612 19.9723441887 35.4494965617
409 1 -1 39.5515116959 21.2240277938 1.28912365333
410 1 -1 32.2315180875 40.7036505396 11.5281384895
411 1 -1 32.9764399979 38.6656871922 11.7255843439
412 1 -1 38.5812403007 42.8846708302 45.8924639822
413 1 -1 34.8538313634 19.4615932711 40.8434512881
414 1 -1 43.1682455883 37.3838637309 30.1443691989
415 1 -1 43.4745203645 20.8994553816 27.4397808281
416 1 -1 30.1455393504 14.4713971939 34.1352501922
417 1 -1 36.6771512587 44.753506193 44.1366153687
418 1 -1 33.0208329042 44.1668533851 26.2127963325
419 1 -1 33.8980101382 37.6648790932 26.0246658081
420 1 -1 39.808057589 0.0270265022275 38.9727697203
421 1 -1 36.2805657548 11.5331752445 45.8373574293
422 1 -1 36.8132579146 27.1373277037 5.29701557041
423 1 -1 40.0113078709 11.1436888801 27.4173726034
424 1 -1 40.4408960815 15.8137406252 0.0552501772513
425 1 -1 40.182549682 44.0408247577 27.9437125627
426 1 -1 33.3238001677 42.6914360185 18.6951553766
427 1 -1 31.4958668246 13.2069012622 3.84228325885
428 1 -1 41.647702851 2.44242294353 22.5673786818
429 1 -1 31.7447520554 43.1913894806 38.3780608306
430 1 -1 40.2923258228 16.9404048527 26.4561442698
431 1 -1 40.9833543599 29.5699758276 28.7242031316
432 1 -1 28.63732491 18.6328226604 41.9937486246
433 1 -1 42.9874780217 6.14250488425 1.89155321764
434 1 -1 34.7590194752 36.1277573157 23.9422981023
435 1 -1 39.3580487692 43.9620022625 23.7331571326
436 1 -1 28.6318309552 34.4554141449 19.1572029989
437 1 -1 31.9127500273 9.70009985536 7.98073559008
438 1 -1 36.2430405145 35.465412599 27.5920209146
439 1 -1 34.4241010615 20.5814440297 27.0592968609
440 1 -1 41.4617585708 5.2059462815 22.7488748398
441 1 -1 34.8221774862 10.9329446101 39.7073047473
442 1 -1 43.0508775343 13.0262039433 0.688296840244
443 1 -1 36.8321874551 14.5909793153 35.6201844132
444 1 -1 38.9159457261 20.5138298018 14.2749342252
445 1 -1 42.1403679808 33.2673921137 4.55534033893
446 1 -1 34.0289286815 10.2179431959 7.36753042057
447 1 -1 33.3931534431 42.8351337813 26.3213676225
448 1 -1 41.7517936585 31.1853171461 44.7274277782
449 1 -1 41.9294468036 5.75907658692 37.6269645246
450 1 -1 43.0729122025 9.60936409407 28.7474242139
451 1 -1 37.8133906462 17.7497689131 47.4419941697
452 1 -1 30.1472433862 20.0045625112 7.12378618415
453 1 -1 36.1317444414 27.5554799828 26.617490302
454 1 -1 28.6125652471 16.3396266937 3.79482137688
455 1 -1 39.4983764608 22.0669293183 42.150102937
456 1 -1 40.723784676 43.5351771701 15.9795182406
457 1 -1 37.7471092581 10.4865429354 6.84464708896
458 1 -1 43.4322549305 5.25012044572 37.4417726552
459 1 -1 37.7412164028 20.9140407454 22.7883926445
460 1 -1 28.4921164692 33.89729668 5.16131311498
461 1 -1 42.7022617544 35.9715454141 14.9950784022
462 1 -1 36.2181765804 46.9031161254 35.4161755325
463 1 -1 38.5566912109 31.862271217 28.3952543264
464 1 -1 30.0852031598 2.48239851461 10.8993410188
465 1 -1 28.6012110943 9.12597874305 2.33840743455
466 1 -1 32.4063334304 36.3072517204 24.3147093375
467 1 -1 31.0685669555 43.2914264552 33.1370494798
468 1 -1 31.3336789182 3.63881353554 19.0064488019
469 1 -1 34.4374455624 30.7368043847 20.5612301218
470 1 -1 41.6896676744 32.0168737204 24.0283174107
471 1 -1 41.6552527326 23.1879315503 42.9435988078
472 1 -1 29.0922711748 36.4769584648 27.406079154
473 1 -1 31.8257185663 14.610727189 16.9346542505
474 1 -1 34.2873840805 46.7781663124 23.6723800478
475 1 -1 38.7569291316 44.1765305783 29.7632288779
476 1 -1 39.457419826 39.0749799614 22.1607293097
477 1 -1 35.1583266995 1.84193405802 5.19421298671
478 1 -1 34.6755537779 5.32410420855 15.3051764718
479 1 -1 40.8111267511 26.2196579549 10.2616341985
480 1 -1 43.4436705237 24.5644204519 46.7581331509
481 1 -1 40.0856331203 32.0870227686 15.3184554156
482 1 -1 40.0044465946 44.9033564379 11.971354234
483 1 -1 43.5949270865 19.9308870199 35.701899151
484 1 -1 34.4203525583 4.82974057598 4.36959903201
485 1 -1 38.0449920751 3.95306416325 43.9685976546
486 1 -1 41.0688234404 29.8554912344 47.9052513101
487 1 -1 37.4554828069 39.2477124975 5.21260935972
488 1 -1 41.6204446627 25.1092691065 12.8718214776
489 1 -1 40.1862181546 18.4316175534 23.2558673231
490 1 -1 40.8917218196 32.903022734 46.6512505449
491 1 -1 36.3026882067 46.7517798408 0.962913733809
492 1 -1 42.064013927 25.7648100397 7.45085487277
493 1 -1 42.1171907909 5.00517395374 20.7668282474
494 1 -1 34.8978650661 46.5392373716 46.6548875425
495 1 -1 40.1181208948 12.3509872625 39.1216202628
496 1 -1 43.9201909759 28.9851897532 8.34468939286
497 1 -1 34.7167280278 28.8050270671 35.3526183724
498 1 -1 40.1479458002 47.4740245683 47.7372852124
499 1 -1 36.9123393329 22.1520990513 22.0734660271
500 1 -1 36.2485070862 18.4596765388 25.0472618889
501 1 -1 41.3905184415 17.6164731777 5.67203564929
502 1 -1 42.5266360107 14.29558506 18.237471253
503 1 -1 38.775287439 28.5009364724 45.8395762862
504 1 -1 39.8081040186 28.8636670448 16.610018077
505 1 -1 35.2879846208 45.3702725103 5.31252331951
506 1 -1 36.0280046613 11.124903477 21.5946449826
507 1 -1 41.0302821773 28.2403527298 18.5064092581
508 1 -1 27.920765557 45.4012381622 2.71303235817
509 1 -1 40.7490670128 29.731565816 14.3757972346
510 1 -1 32.4073596664 29.5233509451 47.4438632287
511 1 -1 28.8545191012 27.2799726541 42.4660894751
512 1 -1 36.5219681074 13.6289405774 0.626920452048
