LAMMPS charge data generated for ESP error-estimate validation

512 atoms
1 atom types

0.0 48 xlo xhi
0.0 48 ylo yhi
0.0 48 zlo zhi

Masses

1 1.0

Atoms # charge

1 1 1 14.5224389508 35.0493658906 12.1651868052
2 1 1 16.7377211491 9.7325454999 40.4443022249
3 1 1 9.35994616906 29.0790011181 42.3390940052
4 1 1 9.95389650447 39.4149838402 38.3996136924
5 1 1 14.069516069 32.087215215 41.1470457871
6 1 1 18.5737753425 25.1441118577 23.898269534
7 1 1 4.58882017764 26.7602648106 16.2667233798
8 1 1 9.49658938262 12.1222557346 34.9382888578
9 1 1 16.9627113352 47.711253778 30.5475350072
10 1 1 10.7155978752 30.1574880877 18.5746912652
11 1 1 10.5776287834 41.9606563785 23.8489871273
12 1 1 13.773467268 24.2347594994 21.3515852414
13 1 1 13.9421221284 38.4003355214 5.38240041036
14 1 1 14.254378361 37.1354470255 28.9796357786
15 1 1 10.621465346 33.6404386731 30.3557631631
16 1 1 7.19248307341 40.6615461139 18.0584627417
17 1 1 7.84195476817 16.7991732835 24.242129961
18 1 1 13.5813398801 11.3032365757 19.9052024209
19 1 1 12.2247252616 26.8927155647 10.7112255006
20 1 1 6.16120266058 12.5356206649 37.7688641416
21 1 1 17.3835375083 0.452348886525 16.2908286248
22 1 1 5.55695648443 11.9576737337 30.3218049685
23 1 1 7.57534919144 13.6605691997 32.7550399659
24 1 1 5.796935007 20.5602639835 27.6621029263
25 1 1 13.8960812388 6.59891319331 0.814363221908
26 1 1 13.7816067105 19.0016265878 23.8182236467
27 1 1 15.615845914 41.685532677 13.711711763
28 1 1 13.3316306662 26.3568622872 31.161705664
29 1 1 8.85063629287 16.1523515563 21.3146018247
30 1 1 13.7284221604 32.0748537418 37.1346063517
31 1 1 15.3558104839 32.4072192861 37.0488911384
32 1 1 5.49152657077 46.7692051425 23.6453193834
33 1 1 17.9640080335 0.463720138965 13.3564102688
34 1 1 12.6841622061 6.34313108401 26.6408803534
35 1 1 10.623077716 9.34828171861 36.6611000324
36 1 1 13.8248787515 38.8519305725 45.2693660958
37 1 1 16.2474554374 42.1228613877 26.1978760802
38 1 1 18.0070023464 31.3713395235 23.4167625282
39 1 1 8.57324593178 40.8885928675 20.7571637637
40 1 1 18.7205065198 17.8846185164 34.7015318018
41 1 1 19.3657731631 15.5058141577 13.8165918753
42 1 1 11.9254867843 25.4517936777 13.789115646
43 1 1 4.16107789974 38.802582116 38.3428290298
44 1 1 17.2084778388 18.9938498309 16.4963177006
45 1 1 14.3893631326 4.6769731284 18.4877279941
46 1 1 4.6960853359 37.9620266566 12.2994762441
47 1 1 16.9263510843 4.26307999804 44.3163247461
48 1 1 19.3091340473 4.05033047516 18.9723287263
49 1 1 10.0149802365 19.7320277298 9.98745341375
50 1 1 11.6136745512 27.4551919774 30.9519908193
51 1 1 13.4126464605 38.5314583764 27.9501144246
52 1 1 10.0446434049 20.3889747486 34.6016079646
53 1 1 19.8366074644 20.9059944434 16.1675377997
54 1 1 19.2004141591 4.19558444648 34.4334164512
55 1 1 20.0377210944 33.3501601276 37.1319697649
56 1 1 18.1158166119 31.0046894453 11.0477741811
57 1 1 6.98057726414 32.9840800364 43.9101904157
58 1 1 15.416380023 38.6285538294 25.2166516346
59 1 1 7.21825386758 18.4932140872 9.09374662506
60 1 1 8.02592780791 1.10137991817 47.8656317453
61 1 1 7.19706970038 9.2257430713 28.6856541279
62 1 1 17.5844422518 43.3211902221 47.233449394
63 1 1 12.7624493219 0.0500914011588 11.0219669445
64 1 1 16.9670679498 12.1895366392 26.8850598117
65 1 1 13.3890694543 0.450012533672 46.035855107
66 1 1 17.4648079415 32.3433011342 13.0750463214
67 1 1 7.88772056409 3.60786341998 27.4194012636
68 1 1 8.58261778977 11.0449437572 29.3734504485
69 1 1 7.3417944849 20.4678673945 19.4978829157
70 1 1 19.1971939002 30.7312662843 31.3671379671
71 1 1 17.0013537497 17.5351242369 2.11846428571
72 1 1 15.7833532275 11.6963496897 11.9385004358
73 1 1 14.7237927258 23.3177644138 21.7724061519
74 1 1 13.3550908528 13.3045156894 42.2093389176
75 1 1 17.4927486836 44.4986236166 25.6985319746
76 1 1 8.85686493772 11.2870156321 6.04552975423
77 1 1 8.77975063704 12.2587424897 13.8824007745
78 1 1 11.1003413236 9.46345475175 33.6117963681
79 1 1 4.25675704443 3.85003502134 31.5739678697
80 1 1 15.6751665469 43.0403115613 5.03957858325
81 1 1 19.7428301896 30.5790726623 14.4266883546
82 1 1 19.9089890352 13.2291292715 32.5794073099
83 1 1 17.8585378433 27.9749679283 35.4842754466
84 1 1 4.54928678462 24.0312506605 40.1768274058
85 1 1 17.8236983324 8.9457282926 32.1727819044
86 1 1 18.2445900135 28.092738305 28.9706572399
87 1 1 19.7675338496 8.86707881198 14.216129902
88 1 1 7.34449815477 8.30592013216 32.2906022892
89 1 1 13.6163696223 14.2296668742 29.4615160966
90 1 1 6.37041855121 24.2681262454 41.2544538321
91 1 1 9.28759127682 37.6744815189 36.0168692596
92 1 1 6.48563206556 36.0592563449 37.4727521694
93 1 1 5.06935247399 12.588501042 40.4160075561
94 1 1 14.2764706786 33.2097386064 9.99865176755
95 1 1 14.7338800983 17.2799976089 44.3085968019
96 1 1 18.7496744098 23.2000761401 21.5802116801
97 1 1 18.172917938 36.3723418615 2.96248512022
98 1 1 10.086149678 23.3657734305 35.5141649019
99 1 1 7.15401776924 44.4769471321 4.78617394831
100 1 1 12.6829105983 40.9145085712 38.4872381703
101 1 1 8.81045366057 27.7385272194 34.8863485133
102 1 1 10.9723141619 6.26716581585 37.1904901808
103 1 1 11.621914869 44.9703907131 41.9990610354
104 1 1 15.8199212738 25.590472364 31.6201719695
105 1 1 19.6309250761 8.16817081464 38.3394598504
106 1 1 18.3810344395 40.9762858882 12.2196026061
107 1 1 5.0061370255 22.9783720216 1.02006166139
108 1 1 13.7692080506 0.948656620143 12.5572855681
109 1 1 13.2283774421 30.4849702464 45.5003798401
110 1 1 5.22839454667 47.2491218553 28.7910082112
111 1 1 15.9456715866 40.5695379321 8.80839839561
112 1 1 16.0976383398 21.0655092191 1.89597073657
113 1 1 16.9170484608 5.41289555047 6.88346664989
114 1 1 18.4502576436 0.156822373567 24.190183184
115 1 1 6.66868286211 36.873148446 23.2960185568
116 1 1 10.0101867757 36.6586751013 12.4891024141
117 1 1 11.5317987167 37.880939389 34.17829281
118 1 1 7.00361950947 15.6664301542 38.685257042
119 1 1 19.8259129189 12.4803495809 1.72535389102
120 1 1 12.7889768057 31.4257715088 10.5548103798
121 1 1 5.61707614952 9.99381172001 44.9373906517
122 1 1 8.75024342014 46.8653243149 38.4515564519
123 1 1 7.57475403356 0.608457527588 21.1582405358
124 1 1 17.3695445275 25.7311504693 15.2511460651
125 1 1 11.0221166667 35.0320764318 4.13924979943
126 1 1 18.0597726046 22.5716907788 13.8904143062
127 1 1 12.9374612028 10.8617015291 8.59896443397
128 1 1 15.3601718238 18.0412102038 12.2653535591
129 1 1 7.43292087283 26.9467629748 41.7059015908
130 1 1 9.62172048336 14.3650917155 28.0731517502
131 1 1 18.0336962377 13.9838058063 31.5086140338
132 1 1 10.3186518256 32.4430264528 9.36176181796
133 1 1 10.0825545902 13.9474992043 41.9568528202
134 1 1 18.0820072765 1.53940831797 47.1966279909
135 1 1 17.0910844757 34.0096792425 24.6063710738
136 1 1 11.6904073781 9.14611825196 1.77474242021
137 1 1 7.01878051852 1.05189813937 32.5800089464
138 1 1 15.031089003 34.2667459541 8.09686803437
139 1 1 14.0838884679 21.5565169435 9.9586988384
140 1 1 15.5286845904 8.33022828529 1.53209744847
141 1 1 6.74878951177 23.2820380255 6.63949145492
142 1 1 18.7680801326 19.8703472248 9.75178298561
143 1 1 15.786029748 31.9825173377 11.5289056116
144 1 1 6.75327617928 13.9440100663 26.3118625621
145 1 1 12.5457709922 34.7238962867 45.7376327617
146 1 1 18.3403094638 9.47344530574 41.7579569015
147 1 1 11.1973394723 16.0857418973 15.5363384143
148 1 1 6.31856187486 34.7354729561 30.1681429967
149 1 1 17.8620651113 29.6181093246 8.23978228313
150 1 1 14.2260485005 46.5216585099 3.90808275513
151 1 1 16.5622848252 29.1398852416 24.8848645902
152 1 1 16.2628150311 30.0447100436 16.3366727975
153 1 1 8.92881779196 42.8793616664 15.7264831465
154 1 1 6.06382580878 37.3082368998 42.1964578929
155 1 1 8.09261765156 2.92541484451 32.1038194876
156 1 1 12.9930843926 9.35935870454 0.696516918274
157 1 1 14.9632150563 23.4793107869 19.912151545
158 1 1 13.4914750834 42.2416231301 0.336536340649
159 1 1 18.0935673721 11.2628998047 18.5606252785
160 1 1 17.541270881 27.4495978927 10.408113209
161 1 1 14.6860924139 18.1480693276 45.2557959796
162 1 1 9.46281458638 30.1881240162 46.547906989
163 1 1 18.579743972 10.8844739721 2.04375065709
164 1 1 17.2925509991 19.5674758642 46.6089087264
165 1 1 5.19233490816 29.1750629188 28.8767647106
166 1 1 19.7828303684 6.3129144545 21.8724249336
167 1 1 17.0065739256 11.1612830405 7.98862303196
168 1 1 15.7162831451 17.4716966048 27.1642290559
169 1 1 6.40481088099 9.64212023918 9.88379519204
170 1 1 8.90008423824 44.0031346092 40.0772409259
171 1 1 9.33828317143 34.3302103237 4.67628603441
172 1 1 10.6041978398 13.4419736295 0.140041877947
173 1 1 9.50993555627 29.1498674632 46.3221015303
174 1 1 13.1644745384 12.5443100883 38.3221545852
175 1 1 8.66646077312 4.0217406362 2.77506255635
176 1 1 14.6203662054 25.1682863766 12.8000754139
177 1 1 9.89382584097 35.8133706891 5.91752139625
178 1 1 12.8055391742 47.7038150062 22.3372577042
179 1 1 20.0354335418 44.1266434599 33.4963927721
180 1 1 14.0493174872 38.5612960725 33.4863778873
181 1 1 18.0637596004 36.0253886009 33.1438973914
182 1 1 12.3534176201 22.19130178 6.42043111712
183 1 1 5.42633823311 47.8581859437 46.8757260531
184 1 1 7.53747927891 1.10963573727 18.9440213152
185 1 1 10.9373023526 22.2196927328 12.1083122814
186 1 1 15.0420852861 22.198158088 40.3668130056
187 1 1 14.6709309111 36.4626189582 34.0482968051
188 1 1 13.0917849737 29.9057332617 43.6082093439
189 1 1 19.9831085748 30.6725978644 2.38553541508
190 1 1 15.4483350529 4.2759005093 9.10282563725
191 1 1 4.20774207175 23.9732013741 33.7101670133
192 1 1 15.1182045145 24.8497469879 45.8225335025
193 1 1 5.1841174659 3.07636779188 14.4055667948
194 1 1 11.6232400917 44.7338622153 43.8173274947
195 1 1 8.85754567285 27.1160837688 7.85688162252
196 1 1 17.6516871319 27.4917753024 0.162513478974
197 1 1 8.81242899226 41.5817187999 36.6800683349
198 1 1 3.87586952548 25.3016269682 47.7364472594
199 1 1 11.3627876796 44.5156482676 45.8194574654
200 1 1 3.8884624591 36.3444355197 4.63891320854
201 1 1 17.9190168407 23.3047914581 11.124832311
202 1 1 5.73587014601 15.5195375709 24.7357759993
203 1 1 13.7456634586 24.1717364117 5.60537699137
204 1 1 20.0071058501 25.922166156 22.203671713
205 1 1 10.4987067186 45.6119326155 34.5629829933
206 1 1 16.3311439513 31.0771647503 11.9553726456
207 1 1 18.3882802543 41.4125104117 0.247744039617
208 1 1 17.0486937266 47.6009812058 44.1353862823
209 1 1 14.0063989491 32.6557340031 3.55892941767
210 1 1 14.3316581715 39.0958405723 36.7534652699
211 1 1 9.3153462158 38.6886259982 3.99746173641
212 1 1 4.90810462042 3.92270051059 44.1531194218
213 1 1 16.0367043607 45.0681405508 43.5869483118
214 1 1 13.1986258044 26.0801691608 9.37213986015
215 1 1 5.20918737246 30.5592137656 24.9729025343
216 1 1 8.4940513006 7.94082335036 21.7628141773
217 1 1 13.5372169324 17.6293384948 31.1555741333
218 1 1 16.0198017688 17.6070913465 13.5206018475
219 1 1 13.823876205 37.1633076079 31.773036273
220 1 1 19.3558770116 4.02066956637 22.2163472806
221 1 1 6.03497246427 7.65714821147 31.4298903111
222 1 1 8.3198484898 10.79920482 23.7744175069
223 1 1 12.2625568091 32.2622910944 2.54116207302
224 1 1 14.3021078454 22.9802927928 13.117834883
225 1 1 17.1738429928 23.8014861273 42.7101567955
226 1 1 4.02235484661 16.084175091 22.0994538466
227 1 1 6.51157671082 7.45388933599 35.0349908739
228 1 1 14.9814391809 10.9148165408 5.12965959738
229 1 1 9.84078298531 22.2415774767 41.2448222487
230 1 1 6.8004750404 21.675668375 0.361127599895
231 1 1 4.73080748166 0.984303385398 47.9715921024
232 1 1 15.4399963234 4.20891558141 5.13040723537
233 1 1 13.761782179 32.4290419461 17.9727129196
234 1 1 14.7291202345 31.0480681401 41.463873431
235 1 1 8.58860797404 18.4172837467 45.9392112077
236 1 1 8.46855279347 43.26232623 17.9810725163
237 1 1 18.9371339483 0.680933702707 38.8479427772
238 1 1 13.5286286 28.4263626841 18.6639197696
239 1 1 11.2784104647 5.2742896184 46.632317239
240 1 1 19.1478824025 2.44383857795 38.0264592506
241 1 1 18.399750471 30.7016899088 9.54768370206
242 1 1 6.28478546871 4.01046058336 24.1416694615
243 1 1 7.06129009641 24.5668079484 41.7497925876
244 1 1 16.5705452265 38.6571335999 25.6328221629
245 1 1 17.7382906052 25.7451030082 27.3153733896
246 1 1 17.334321612 9.0024351492 0.346576548518
247 1 1 14.9987699905 47.1388741849 1.4884508607
248 1 1 13.3216721524 1.72479922472 40.3558199877
249 1 1 5.36272017322 12.8288895713 15.8864020042
250 1 1 10.3347501637 9.27649247968 38.7600511632
251 1 1 11.2416738647 10.4000661945 43.5232479161
252 1 1 7.15699901066 33.798381779 28.0296711908
253 1 1 7.99021113462 40.5671705762 4.21327729258
254 1 1 5.59418467511 31.7249443062 35.1161389766
255 1 1 16.9942107755 42.6999125435 17.1634621243
256 1 1 12.0680491611 1.75677707635 13.0753453325
257 1 -1 41.4546986528 22.7356887918 0.139626530274
258 1 -1 30.0514181234 23.8289044176 13.326673121
259 1 -1 44.1357048088 1.42440345048 10.4493239075
260 1 -1 43.963849823 17.6085924083 32.6535308707
261 1 -1 31.787761352 19.9271414987 9.76392517597
262 1 -1 36.7881631511 11.4953745693 13.6587881187
263 1 -1 37.2386243563 10.3763063042 40.345160572
264 1 -1 41.6183421346 14.6749385124 46.9248755064
265 1 -1 36.7485864979 24.1292567294 10.8277592981
266 1 -1 40.6678918963 14.9256423563 19.0277280207
267 1 -1 36.6089541016 3.53340405321 17.7306719536
268 1 -1 32.2798743167 13.1647894819 25.6809455778
269 1 -1 43.2966224405 16.6598183234 17.2461837589
270 1 -1 36.7424043821 26.2765540927 4.38397675839
271 1 -1 30.275144005 32.6686267878 47.9301913268
272 1 -1 32.9258588945 17.5861529348 13.9663447634
273 1 -1 35.0658758591 25.2874412368 36.5288334287
274 1 -1 43.7437952479 11.0315331352 14.1574710355
275 1 -1 39.0647489362 18.1293031515 8.45556771159
276 1 -1 37.5849170948 17.6686031784 44.4444412556
277 1 -1 37.1717060829 47.1102140092 4.30245369894
278 1 -1 35.2649093638 23.701192107 31.8798713217
279 1 -1 28.4048095134 34.404434362 29.6509382122
280 1 -1 30.1197497644 45.0126894744 26.159441886
281 1 -1 43.0066657729 17.6258443531 37.4021732689
282 1 -1 41.9237630111 1.11180685221 15.3028497431
283 1 -1 42.5147511541 18.9105992776 4.03808696129
284 1 -1 42.9835697873 18.5021874679 19.2276668163
285 1 -1 33.7153460734 17.9631958464 10.1345782956
286 1 -1 37.6584061538 22.377873668 41.0085262059
287 1 -1 34.5330939309 5.78609818868 4.71452739139
288 1 -1 40.5657068134 45.6433409388 20.511029476
289 1 -1 35.2945227277 36.1912958008 9.63240176609
290 1 -1 28.7719486176 31.2253627838 11.8148776491
291 1 -1 39.5538866641 36.7344064624 10.9077636316
292 1 -1 29.0036732366 40.1702180036 18.5479119989
293 1 -1 28.3424061287 22.6198724258 7.1531333083
294 1 -1 34.0066012878 32.7357316904 36.0444133457
295 1 -1 35.9999507323 17.6404477561 25.4716675457
296 1 -1 27.9038938635 37.8213796735 20.6617244884
297 1 -1 32.2637928139 17.6398963032 40.5498819566
298 1 -1 43.9742895378 21.0386618844 44.1620482137
299 1 -1 43.8533323122 11.8623586215 38.0528265829
300 1 -1 37.5124073737 46.6991514559 22.6822674079
301 1 -1 36.7861618311 1.86744081759 36.5863451632
302 1 -1 31.345656275 42.6127759618 44.1918297637
303 1 -1 35.8233551193 8.08924190801 22.3418556531
304 1 -1 38.9599653451 6.81313050255 3.64394143727
305 1 -1 38.7522862592 32.6477685206 6.79208723096
306 1 -1 40.9456371801 24.6302846177 20.3450193364
307 1 -1 40.1216407062 28.3874355752 43.1139245837
308 1 -1 35.2895891293 7.52329254276 15.3949759084
309 1 -1 30.3292605891 21.1618520456 11.2852580549
310 1 -1 31.5770142534 11.8628272857 47.4446209748
311 1 -1 36.4819615472 7.54596084529 15.7624016463
312 1 -1 36.1262564516 33.7992727933 10.2548042794
313 1 -1 29.5140959145 10.6153835009 1.61023162055
314 1 -1 36.3342433829 26.9029194245 27.962419485
315 1 -1 36.7649616099 42.4030252535 38.1201954123
316 1 -1 32.2603217108 10.2608791637 29.9028037765
317 1 -1 44.0792007655 22.5478117791 47.7467842001
318 1 -1 38.5000325155 24.011642836 0.348503018483
319 1 -1 29.9929831567 37.5217530856 9.09353173632
320 1 -1 33.1266962165 14.4313477497 27.7939360685
321 1 -1 30.1795886718 43.2102351453 0.902401420507
322 1 -1 40.4318684769 22.4259194104 18.1003310938
323 1 -1 41.2569642569 38.5295722746 15.6662801696
324 1 -1 37.5686808633 27.2944414425 44.7739505121
325 1 -1 29.4070392309 8.43209098778 23.3241354966
326 1 -1 34.5600012325 29.8494246931 39.9015349379
327 1 -1 40.7674561121 9.93913094095 7.2735092327
328 1 -1 29.0416932184 41.685785792 3.69153388702
329 1 -1 34.1570838186 26.1997260366 46.5537250798
330 1 -1 29.4208766547 21.0844864512 34.309630177
331 1 -1 36.805890291 25.630152783 43.3079570089
332 1 -1 33.2444204915 46.3119480742 2.01245689153
333 1 -1 41.7422269789 20.56160333 10.5115511946
334 1 -1 32.1892089818 12.4400879704 26.0286470539
335 1 -1 43.6552551728 45.1933351934 23.543281743
336 1 -1 36.210644134 15.1582271031 21.657709827
337 1 -1 40.2357691169 19.2334134388 11.0578212157
338 1 -1 28.2364569715 19.5833555284 27.399146908
339 1 -1 29.1782251086 31.0714700084 22.7035191827
340 1 -1 42.5914566536 37.5129781636 26.7907194049
341 1 -1 40.5491087485 18.3824118422 22.703426731
342 1 -1 34.3142496424 37.9195469281 46.1170231245
343 1 -1 38.6281524498 17.199556 31.0046966387
344 1 -1 34.1598366329 8.80771361808 15.0043229451
345 1 -1 38.715195726 3.51224461173 38.6245506071
346 1 -1 40.6281329219 36.3457120481 35.5766588326
347 1 -1 35.5711949012 19.7339446988 24.0073581813
348 1 -1 34.359561449 21.0738487949 23.0080570203
349 1 -1 36.2246075009 45.9018288449 31.4030512638
350 1 -1 29.3457893861 0.521026896384 37.5374698942
351 1 -1 29.5979757315 30.7933778535 10.6902655154
352 1 -1 39.5985580553 17.2838833366 18.0993585902
353 1 -1 39.5322811545 22.1030923285 6.4082918309
354 1 -1 32.2558995847 4.88151665064 42.0434328948
355 1 -1 43.2195302044 11.6772607956 44.8458080255
356 1 -1 40.7649558601 38.1959749793 41.9786294347
357 1 -1 33.9750220457 44.3633023267 13.5597167041
358 1 -1 41.3547972221 8.51007914177 39.4858288838
359 1 -1 35.1436661382 35.2236238728 29.6027474465
360 1 -1 36.4058715957 47.7609004996 43.0310659311
361 1 -1 43.9043374225 41.8530442707 19.0792344972
362 1 -1 33.7934182083 4.40508167379 25.0387541191
363 1 -1 31.9697359441 36.5916741726 7.0696551796
364 1 -1 43.8179481522 4.57400038913 1.97685703018
365 1 -1 38.7372380452 47.554065492 5.31663163914
366 1 -1 29.2968767148 6.06951605982 37.8376250787
367 1 -1 32.3901354556 1.43717347933 13.7956355265
368 1 -1 40.0011222962 34.6983667551 41.0628917069
369 1 -1 34.3110555087 16.9747755132 40.3961811214
370 1 -1 31.3850269434 29.0790794812 30.4837109139
371 1 -1 30.0124149539 0.652580136595 26.3129446642
372 1 -1 32.6781986585 33.7206671093 20.4330522206
373 1 -1 35.0939756342 36.296701063 2.93324073741
374 1 -1 28.7767860448 6.25964791855 17.3795153925
375 1 -1 36.8593359154 42.3170396064 34.4854177545
376 1 -1 42.6049388994 24.8695515393 19.4745819839
377 1 -1 36.0711290177 3.97398850559 12.7706877407
378 1 -1 43.4630570952 35.1948215467 42.432396616
379 1 -1 31.694290619 1.08796927318 19.1116569887
380 1 -1 43.126730276 47.8332204292 30.1398554312
381 1 -1 44.1420103376 43.3149564403 21.5967440248
382 1 -1 43.9474765124 4.07319348387 31.5188902257
383 1 -1 37.4932318641 28.9936706212 27.7525419002
384 1 -1 34.9048659876 43.5248481418 46.0370892711
385 1 -1 40.5044719577 26.9672689042 16.8911827407
386 1 -1 43.983049483 5.60133095254 8.35044522001
387 1 -1 38.5465443825 13.5414188092 36.9953647168
388 1 -1 34.0721652949 9.26876857602 19.9062367678
389 1 -1 33.640973521 18.2064030162 38.4719107127
390 1 -1 39.0301904342 47.4172323697 24.5229552271
391 1 -1 42.5331450837 26.7325978525 15.455438746
392 1 -1 38.4762849352 13.759343152 25.1661317814
393 1 -1 34.9477779386 20.18614239 32.3899806073
394 1 -1 29.2020326633 10.6421622027 26.0408257878
395 1 -1 42.0547668709 30.2162489914 16.4849336881
396 1 -1 41.5792311569 2.03663625937 21.0092695547
397 1 -1 38.8513369321 39.3406757852 36.0201291272
398 1 -1 40.7610674815 40.5084700737 11.611313907
399 1 -1 42.2121700037 32.0709064227 4.14614373725
400 1 -1 28.4883758572 27.354317052 13.4094108273
401 1 -1 37.6802044042 14.4467947684 15.8050302548
402 1 -1 41.7809205581 5.23671962876 0.0608670507312
403 1 -1 30.1128758635 0.279130249608 24.3033718489
404 1 -1 44.0151677052 32.2288925983 12.0439487291
405 1 -1 33.6648046414 38.7538812012 39.8164240276
406 1 -1 32.9922600647 42.9005662438 13.8910060612
407 1 -1 32.4952332316 36.3057855953 34.6854202971
408 1 -1 30.9223056825 27.5881230288 39.7104931552
409 1 -1 41.405651685 46.8405187878 46.9689105523
410 1 -1 40.3639429571 2.76254278555 14.9450635409
411 1 -1 33.1634413827 41.4965478606 6.03958019456
412 1 -1 40.768588587 6.74575440442 1.11121389115
413 1 -1 41.6963926232 3.04371251776 46.4698475144
414 1 -1 43.3470770533 12.1871533061 0.170964336796
415 1 -1 37.0331517761 31.0799024997 30.9853481321
416 1 -1 37.2887429161 28.8004374394 45.0619121356
417 1 -1 39.8202862418 14.3558204623 7.1146274732
418 1 -1 43.2788910888 32.6575783657 28.482494027
419 1 -1 39.8536841045 32.0037777768 29.6479502593
420 1 -1 36.3929411278 41.9177505919 17.5659872125
421 1 -1 43.3876154195 23.8908462815 23.6166120872
422 1 -1 34.6484020886 45.136706537 1.44149442088
423 1 -1 30.4556857978 4.26794066862 33.6408247779
424 1 -1 38.4136814041 11.3742414259 42.5687358412
425 1 -1 39.0878714433 28.634489788 44.8483359055
426 1 -1 28.4348206634 26.9730699273 21.9645792652
427 1 -1 43.833766841 37.1299844245 11.281471726
428 1 -1 32.6144003199 35.7201588598 1.09735045628
429 1 -1 28.1950938978 44.2091790804 17.2699344421
430 1 -1 39.4044953313 8.71335477739 9.32720552651
431 1 -1 31.3165484432 9.17886034441 43.830463515
432 1 -1 41.9051054339 19.4954061837 35.3972398716
433 1 -1 39.7630650987 3.48302013223 46.5809056618
434 1 -1 36.4669586522 46.2023137388 19.5173325122
435 1 -1 35.7482625813 28.2449510905 1.15768318869
436 1 -1 41.2638068219 22.2547330693 6.15102790434
437 1 -1 44.0986873694 45.2913438821 7.84132901016
438 1 -1 32.6100680037 7.70621929284 37.749063815
439 1 -1 31.3879678862 14.9001872966 16.4787490696
440 1 -1 43.5286832215 20.9774084789 43.3293631644
441 1 -1 38.3161029614 41.5255614969 16.3929627996
442 1 -1 29.8457051963 21.042523138 33.3914430899
443 1 -1 41.1532281096 18.9825178055 6.48765033803
444 1 -1 35.7577973792 15.6453885486 31.3259492169
445 1 -1 43.1767161582 30.2340271729 8.21150731875
446 1 -1 29.3012929131 20.9470980226 34.346065045
447 1 -1 32.4714592825 21.1372704286 45.1958327906
448 1 -1 39.7778870237 1.51583313416 19.6426210837
449 1 -1 31.1409188181 13.5862135513 9.67845593272
450 1 -1 28.9415333446 8.07883390816 35.9578766933
451 1 -1 38.1175680665 2.26828006491 22.3116577181
452 1 -1 43.9833359562 29.0673847466 37.7205514789
453 1 -1 29.0261479343 31.5537890676 27.411042663
454 1 -1 42.5640506791 28.2913328076 17.250083456
455 1 -1 43.6068123338 16.461391492 1.90617593971
456 1 -1 43.8624573204 23.9069875673 1.894839835
457 1 -1 43.7513472778 34.8414779108 20.3652035457
458 1 -1 37.4776493484 4.19743611736 30.8568434152
459 1 -1 28.0028749912 41.795859081 16.6507426596
460 1 -1 34.6358671901 41.1021161608 10.8922840361
461 1 -1 34.002173514 15.4564487035 13.7502029678
462 1 -1 36.8561723784 1.40675504016 43.6463871055
463 1 -1 30.6076228313 26.5756906532 35.8973582098
464 1 -1 43.5965743627 7.23995302257 21.3148827382
465 1 -1 30.7216729042 13.0238513217 38.8813819136
466 1 -1 27.9143200336 7.91302954041 26.4835163088
467 1 -1 36.3119908811 7.97400165834 16.7511246365
468 1 -1 30.7329634178 11.2415702029 9.92592198218
469 1 -1 42.2736389561 17.2600422395 27.6466170667
470 1 -1 33.5497568143 3.62419134443 41.6900967749
471 1 -1 31.419259045 22.3389108635 30.7083723561
472 1 -1 29.9774174101 46.6225030797 31.4108606272
473 1 -1 37.3379284717 45.5869310682 14.8628128534
474 1 -1 29.9320369279 26.6164866123 45.441558961
475 1 -1 29.4899731272 6.83922249055 41.8125588563
476 1 -1 35.3247079286 15.0956306763 26.064184949
477 1 -1 36.5438242325 29.6643295093 14.1829362869
478 1 -1 34.444309892 16.2087861804 1.02431921931
479 1 -1 41.4847536026 4.60722200311 11.6004869952
480 1 -1 36.1662940219 27.8136185015 30.9355631149
481 1 -1 32.8061314073 42.9821033337 42.5249717154
482 1 -1 35.1773633675 29.4749328108 0.265606467602
483 1 -1 36.5987203571 29.2128420162 11.1373662251
484 1 -1 28.5065066103 36.6033945419 15.1655348047
485 1 -1 37.1865859539 20.9331737044 9.66786959144
486 1 -1 32.608194989 33.3046709738 29.6663197713
487 1 -1 38.4764014652 43.0937970594 1.94145796559
488 1 -1 35.4774782337 4.51445356813 11.8867633982
489 1 -1 30.6235116324 11.8651631114 4.19277548649
490 1 -1 39.1383462915 31.0153708068 38.3637383004
491 1 -1 36.671788893 35.60066159 22.011456861
492 1 -1 33.5173495466 45.4934853455 46.0671310619
493 1 -1 32.8584570006 28.2238103555 39.3540044196
494 1 -1 39.6567002616 15.6185023771 11.0934908988
495 1 -1 37.62672854 5.69282340435 4.81794692607
496 1 -1 40.1840232226 42.0795184565 19.3069235029
497 1 -1 40.4765797199 4.18674043234 29.2039204975
498 1 -1 37.7039117745 18.2402614155 25.0641951133
499 1 -1 38.3039427113 19.2073256975 2.86236506806
500 1 -1 31.278722755 40.9012422334 20.9188556802
501 1 -1 43.7299096645 27.1814521556 3.13960269437
502 1 -1 41.5208312285 33.8246269066 25.2751529235
503 1 -1 33.8961040955 27.7688615286 36.3905454412
504 1 -1 28.9216153341 23.2018231063 5.32897854433
505 1 -1 31.1673188528 13.8475091449 14.6299675672
506 1 -1 41.136460361 33.9710081373 34.883216272
507 1 -1 28.0187958943 40.1229895453 12.9081220808
508 1 -1 36.5332129216 24.5505851366 24.8124330758
509 1 -1 29.467894705 2.70131469421 11.1474079357
510 1 -1 31.3455886964 0.654087301526 17.8078550477
511 1 -1 30.4308488681 9.37288736105 6.18967061951
512 1 -1 41.6155091629 22.6777715264 8.33835000802
