LAMMPS charge data generated for ESP error-estimate validation

512 atoms
1 atom types

0.0 48 xlo xhi
0.0 48 ylo yhi
0.0 48 zlo zhi

Masses

1 1.0

Atoms # charge

1 1 1 11.6369375943 1.53408383721 0.645371252933
2 1 1 8.89509940721 23.8808626141 38.2065402808
3 1 1 19.9172836 15.1810765851 44.3772189202
4 1 1 17.5948195657 30.18715172 4.67311670606
5 1 1 9.65167992987 22.0729442608 25.8467310172
6 1 1 17.2735478575 10.7697406895 15.7128897561
7 1 1 6.94775637169 11.1791334753 25.8960055865
8 1 1 12.3725675893 34.4041496459 23.9620777058
9 1 1 4.98374365069 5.15602954334 17.2370376298
10 1 1 6.56261885264 25.3754884007 24.9732109401
11 1 1 13.0077425776 24.0881107703 9.21084912424
12 1 1 10.1613374229 42.2775036154 22.6738334686
13 1 1 14.6689278389 27.3071273243 11.1836000618
14 1 1 16.7754387626 47.2158188406 38.9553301681
15 1 1 15.3550108748 29.4219234506 11.5051170227
16 1 1 9.401952236 45.2261887633 47.1471441826
17 1 1 15.1040096685 16.4843397134 21.0392588047
18 1 1 9.19341054595 46.6464768186 36.1367804945
19 1 1 4.90951376013 34.0647619606 12.1793933854
20 1 1 4.27732556767 2.34137981351 16.666693038
21 1 1 13.5476140023 32.3220185258 12.7772476134
22 1 1 8.30474055936 41.4272052833 6.47673070243
23 1 1 12.5305088162 43.2966533383 35.1395717065
24 1 1 11.5305111859 7.30746574023 14.0041117308
25 1 1 17.1417931102 25.3236463343 10.5028206849
26 1 1 7.97838816896 42.7190491628 0.109963434329
27 1 1 8.51408789447 44.2585959801 11.1835340488
28 1 1 19.562161446 13.6779369329 1.82756118721
29 1 1 11.1518973986 3.55373300017 11.1137300605
30 1 1 8.22108824904 30.5520037214 39.7735379354
31 1 1 8.5528662617 24.296506923 5.91938297385
32 1 1 10.6517124885 21.6537860279 1.33715679357
33 1 1 6.33483115061 21.3472830367 37.9421280413
34 1 1 11.6037417281 23.7441395766 34.1397537273
35 1 1 4.11871941091 27.6739157069 41.3070223096
36 1 1 10.3115840468 36.7045451715 13.89638808
37 1 1 4.02217317481 8.85717766586 9.50320698249
38 1 1 19.4662608166 41.1803940633 18.9952479493
39 1 1 19.9011962521 35.4504456476 39.0259693424
40 1 1 14.42522418 18.128751471 21.4766163763
41 1 1 7.83676812654 14.4326731458 16.0668298261
42 1 1 12.3185509023 11.8030327937 46.1395398135
43 1 1 10.3343355428 11.9488743469 13.233032874
44 1 1 6.33220121112 37.2353271968 20.7674180791
45 1 1 3.9594126171 9.78970742772 16.9271741608
46 1 1 6.67645593189 32.8335564788 41.9341559604
47 1 1 12.2607790924 12.5108753639 5.22891908603
48 1 1 12.2713771663 34.7506823661 46.4800674781
49 1 1 5.82897371397 28.2948196571 2.00600375076
50 1 1 13.1622456904 18.6309950907 21.4347444531
51 1 1 16.7353819877 21.5613215505 12.2338318498
52 1 1 16.0248318742 1.57468333547 44.3134712306
53 1 1 20.1135051646 33.0341135705 11.9248535708
54 1 1 18.2247753022 3.96133169551 46.356024118
55 1 1 11.703134871 5.64283258468 27.4308358547
56 1 1 10.6378306854 26.7225096249 23.7133498753
57 1 1 9.50077280219 7.33487346621 40.4088200954
58 1 1 19.7392373049 7.23735118677 0.464063431048
59 1 1 17.7917358384 13.4033252375 29.7610435695
60 1 1 6.00413921962 43.9529205992 41.29424233
61 1 1 9.30332643159 42.5436573822 45.9510519388
62 1 1 12.2555478695 26.6347331185 36.4018801562
63 1 1 18.0036768986 18.5146064267 33.9504547739
64 1 1 6.46660265679 11.641630638 34.9192926096
65 1 1 6.34301334036 46.9458051546 43.0086104441
66 1 1 15.2314792684 11.4342857384 28.669179397
67 1 1 19.3646012808 42.5614053397 9.53548654914
68 1 1 7.08519723781 18.430398856 12.650884865
69 1 1 9.72413569724 11.0760177397 10.0917186828
70 1 1 11.0685547621 11.5022501187 37.478807939
71 1 1 10.1773968187 42.214904904 32.901390816
72 1 1 7.62944294216 10.1059514226 36.2922518628
73 1 1 5.45625310314 17.2553460698 15.554944698
74 1 1 17.0446584984 46.387584378 47.9725378659
75 1 1 15.1300752237 26.7428232316 15.71895738
76 1 1 13.7687283272 7.18499922989 36.7478910562
77 1 1 19.9616609622 5.63072496982 39.9477606065
78 1 1 9.04536269137 12.0907800606 6.85572073152
79 1 1 14.6243439964 23.1829137871 47.2684421543
80 1 1 11.7233555083 16.0103403184 18.7826471486
81 1 1 12.1885047942 43.4184459844 27.5122355828
82 1 1 17.5568478041 15.3601595462 33.7819195974
83 1 1 12.1559786164 25.8144696865 32.9023786237
84 1 1 15.0096264132 31.1327867371 16.7859918189
85 1 1 19.5860235507 25.8828445927 21.8463361619
86 1 1 15.1879740508 39.4082002335 1.1433789709
87 1 1 9.67127781452 47.0137053118 30.146882058
88 1 1 5.376173083 47.5482651188 9.42865023388
89 1 1 8.68105876476 33.3702964466 18.2065142783
90 1 1 13.9822502305 14.5878607896 22.0351267418
91 1 1 11.6905940577 47.4702376231 10.3084515208
92 1 1 6.1400985414 18.4475224013 46.2855013968
93 1 1 17.8863985985 26.3003192463 32.075265728
94 1 1 17.7229118734 21.4894515339 39.7256813558
95 1 1 8.5654816247 7.80726511662 25.6613756196
96 1 1 17.2647059704 21.0968698366 9.04471214947
97 1 1 5.08999508242 41.1372313383 39.7738705415
98 1 1 18.5153659443 10.2964081439 43.2687868494
99 1 1 5.01253156783 35.3866669153 44.9791634218
100 1 1 17.3942254464 41.4598552837 41.0830347424
101 1 1 6.94205175503 46.7177141314 45.8658023114
102 1 1 7.99699733669 26.4773952843 16.2738928587
103 1 1 15.8655892221 0.279428212478 21.8292216003
104 1 1 17.1958082082 38.6636160493 5.18661548855
105 1 1 15.9683654261 6.90641892823 1.19317240709
106 1 1 10.8054616948 2.83976658591 38.9219636045
107 1 1 5.20127547383 39.0388564879 24.4195998486
108 1 1 16.5612591297 7.41797247037 15.5988156644
109 1 1 19.3221811582 12.6599565567 7.39195710644
110 1 1 17.0882816715 39.7255348801 46.6599473123
111 1 1 14.1034521413 36.4101042987 14.8777387175
112 1 1 19.4379745962 40.5215025472 34.2496180049
113 1 1 18.636329169 12.1737275501 8.90156777798
114 1 1 7.8078092853 40.1647521076 42.2939123739
115 1 1 5.66595390236 0.469649348401 4.59970360914
116 1 1 11.0134158854 37.8505909046 13.404465043
117 1 1 18.7105674112 43.5161468578 9.04235257306
118 1 1 8.25650622186 46.621462854 27.9974767782
119 1 1 10.3902419356 13.0668613841 18.7999581187
120 1 1 6.94804679113 5.97329426686 7.05600456861
121 1 1 16.4461436381 27.4475305411 5.78041811722
122 1 1 11.0014398406 47.5239247498 21.2594583382
123 1 1 4.80012855364 46.1769819454 41.6622990352
124 1 1 9.47291541259 24.3373452983 12.6476023199
125 1 1 3.98364909871 25.9119361174 30.9441850401
126 1 1 8.34395473929 13.7761705258 40.1933782956
127 1 1 14.9850754191 4.27412139818 7.44905427095
128 1 1 6.72376256865 0.388065691519 39.9110534407
129 1 1 11.9905710635 37.989575476 36.2908934236
130 1 1 11.772128066 12.6692932627 37.8907634838
131 1 1 9.59655080405 42.3257596694 38.2101105951
132 1 1 7.03716826749 16.771402915 32.2560257887
133 1 1 14.6657280573 28.7378678518 38.4897679403
134 1 1 16.2638368462 7.94255093726 46.6325684528
135 1 1 15.2286292526 16.319112617 7.62232930982
136 1 1 8.21784842654 18.5170543223 16.6286803856
137 1 1 12.0781300905 2.02134180369 3.10881680448
138 1 1 20.1016327388 8.91217891027 44.0642984007
139 1 1 5.76295619163 23.7203261043 24.1108535335
140 1 1 13.598924346 31.6323954966 42.4490249907
141 1 1 10.8521695149 27.5311705263 35.6844092663
142 1 1 4.93800902895 5.33685840958 46.6653366488
143 1 1 16.3145604785 37.6413250974 20.3946279574
144 1 1 16.9531271897 20.4662016961 18.5380863052
145 1 1 9.43767926776 44.5996691249 28.6787458456
146 1 1 9.13625904317 22.952149897 40.1091963935
147 1 1 9.72475996185 15.8387684113 30.7745087732
148 1 1 5.01064118627 43.4439020936 19.0927402656
149 1 1 13.4662211915 43.7473404734 2.50817473171
150 1 1 16.1428450461 11.9323566789 19.7783584631
151 1 1 16.213467449 46.1584509586 24.1558498772
152 1 1 8.82733789239 47.4823220517 47.5192882726
153 1 1 17.7528825809 31.9504190618 44.1256247314
154 1 1 5.60563118299 44.5023271211 3.03096474956
155 1 1 11.2037325769 14.1503064801 39.3250078226
156 1 1 9.32693223506 7.13451121468 15.0757642664
157 1 1 4.36729498725 15.4216932121 7.10000580118
158 1 1 5.39177964036 33.0371736611 37.8286049972
159 1 1 5.1402107773 33.2985481629 29.4689666548
160 1 1 7.17551507369 1.80260304427 7.80921344588
161 1 1 18.8562845296 45.6901153796 3.38052569515
162 1 1 16.0744515144 2.20515873211 12.7410112379
163 1 1 8.83210953669 15.0850339134 23.2253292433
164 1 1 7.48628216059 27.2487613102 2.32038232024
165 1 1 4.82402383401 23.3954300257 23.7120794967
166 1 1 17.803228184 24.3734309252 37.302965448
167 1 1 4.19832872701 34.9315214536 30.2017733973
168 1 1 5.89233024889 21.7643143198 33.7465006434
169 1 1 16.3435656372 34.2541979226 9.26499872984
170 1 1 8.05892439457 37.717043661 29.1136868025
171 1 1 5.77906652736 28.9280581767 28.4305881337
172 1 1 8.31157604121 2.875981019 25.8872550958
173 1 1 11.730499635 8.24210487088 31.3335630612
174 1 1 12.7680779717 14.4682526863 29.4960081722
175 1 1 9.23689643495 0.800917981199 22.6253170176
176 1 1 9.70495345194 0.410078416752 33.3708068421
177 1 1 9.32622823367 5.87273964657 9.24644041828
178 1 1 17.2507425579 25.730173474 41.2597086509
179 1 1 19.7615156566 26.3027088453 7.39522958926
180 1 1 13.7002736798 5.68450203866 9.36964390855
181 1 1 11.4403542979 16.2341126815 17.2005788142
182 1 1 8.30848446624 43.4497455885 27.4990362886
183 1 1 8.05159692249 7.1342478061 8.33622986468
184 1 1 6.28416735051 31.0346967713 29.5809459463
185 1 1 14.7206132473 45.9966933845 20.8674947284
186 1 1 15.9436201842 18.3125677334 37.0852618214
187 1 1 8.85681354482 8.47468930433 30.4918829987
188 1 1 11.9895644139 11.8498975031 21.0781269169
189 1 1 4.49514076503 44.4113587865 40.2662506769
190 1 1 8.75068278082 41.2422663126 14.1112416828
191 1 1 10.3536284822 11.9761328101 39.9147165173
192 1 1 11.0519724079 17.4316518483 36.2272969743
193 1 1 18.1221195586 3.79053325763 38.7336953963
194 1 1 19.9105692615 10.0436986555 39.7481025479
195 1 1 4.56561287469 45.2329173548 29.2459760974
196 1 1 6.64996815083 30.5500026097 33.5679797167
197 1 1 13.1008013551 8.53045616321 1.79078077141
198 1 1 18.3907511881 1.98884289798 47.5290517599
199 1 1 17.8174715771 24.6519044551 38.8076592802
200 1 1 7.97408876999 3.72643406988 7.28592241964
201 1 1 18.4077499 9.01677992849 46.6621901538
202 1 1 4.39542978596 2.911660588 42.8797806133
203 1 1 12.3323791844 2.65408061361 23.5277901618
204 1 1 7.50154055617 34.9595320195 12.849188467
205 1 1 19.9890181438 2.22266120808 38.1665165251
206 1 1 16.6069660323 32.4710528867 8.18895027694
207 1 1 7.78565221393 41.7192173417 18.026969106
208 1 1 17.5041867481 11.3838774911 13.6450693512
209 1 1 19.8201430805 4.3257808861 29.1691147895
210 1 1 5.42881197414 32.5019422891 12.6295620193
211 1 1 17.1499741428 1.38644135095 33.2383188764
212 1 1 5.75314046886 33.932788232 8.93806921425
213 1 1 11.236174403 0.747121215063 11.2672841285
214 1 1 3.92212970076 23.1882958615 20.7555741202
215 1 1 8.94079865499 6.8436149632 23.5537718505
216 1 1 4.47859941252 40.3953379075 13.2230502316
217 1 1 16.9730858752 13.5898547911 45.6847442956
218 1 1 6.83557320133 43.4295825963 23.7071686038
219 1 1 6.83975706072 18.5506610896 26.2833271777
220 1 1 13.5927415444 22.1066873494 15.0171409967
221 1 1 6.80239093843 33.7410572581 28.5545948914
222 1 1 15.8241879632 44.1981498823 12.6208714136
223 1 1 4.41682277291 32.4446250822 35.5330826527
224 1 1 12.1118929553 22.5849695648 38.0833962166
225 1 1 13.1582112567 4.94037371662 28.3972115314
226 1 1 17.935206814 35.2478861685 42.442438035
227 1 1 5.78498211739 14.3690689833 22.0805553894
228 1 1 17.2766249362 20.5317824221 28.1090125097
229 1 1 17.7030434157 33.7311003441 16.3883571658
230 1 1 7.42198386345 5.13878643438 21.3320728126
231 1 1 15.5895038293 19.6104193512 39.6413023898
232 1 1 10.5271271475 23.2176868678 22.9741357979
233 1 1 4.99530432991 40.5120907375 39.4332589277
234 1 1 19.2770018531 15.8161904762 23.6387451314
235 1 1 13.5766843432 26.8355529052 32.7817464604
236 1 1 6.23991410424 13.9540454889 17.2622985994
237 1 1 15.9491835909 38.39912275 7.38139387937
238 1 1 15.0109067476 15.5077398103 41.6995548055
239 1 1 20.1361771071 36.6870333679 33.2801622127
240 1 1 15.5226888384 5.77695935354 0.469123066213
241 1 1 16.1605937817 10.3176729248 2.45226949945
242 1 1 12.4886971114 16.6537099182 34.618912882
243 1 1 17.5542039248 27.4125902357 21.3049815567
244 1 1 3.89575613225 39.5282197079 33.2142694496
245 1 1 9.28606899656 35.6022632914 47.4952339891
246 1 1 16.4612324338 33.8919642944 41.6481853959
247 1 1 8.25629294495 34.0139893157 42.6320241453
248 1 1 4.58167773312 2.9591224693 13.8884645694
249 1 1 18.2347399624 43.0258741829 10.1375999535
250 1 1 14.5797213548 45.9629954975 32.0694897652
251 1 1 10.0613088492 40.4683910888 23.0498193621
252 1 1 4.99573650655 41.3818879869 17.5990704124
253 1 1 12.5111338654 18.4839380269 43.6865931759
254 1 1 17.0316779455 6.18137642416 13.3604735493
255 1 1 17.3992810929 34.444570067 32.2275960257
256 1 1 18.5950379816 9.38325802312 1.87821302889
257 1 -1 34.1079987432 47.5206643881 29.8168614259
258 1 -1 36.290079248 4.57233020738 25.7886818577
259 1 -1 41.5770873292 30.1739520015 22.0548732803
260 1 -1 34.4396126227 47.6689016174 33.7277969584
261 1 -1 35.0527454204 45.9418155809 44.3017967628
262 1 -1 36.4810115547 45.9308480199 18.2935453402
263 1 -1 34.4463546922 24.5551852306 18.1863974578
264 1 -1 35.31558876 0.818007958819 6.76939131308
265 1 -1 41.2265561346 36.1450094385 21.8930854436
266 1 -1 31.5630949175 6.81368340343 46.6625887295
267 1 -1 31.9631228216 36.3343696046 24.5850330007
268 1 -1 43.2744084575 16.6457423704 34.676603403
269 1 -1 27.9686441902 43.1898537203 11.4980437245
270 1 -1 35.3776800876 8.06613404555 15.1559795424
271 1 -1 40.1142734856 19.9058070393 4.69116294674
272 1 -1 43.5213409483 29.559772948 42.2745938326
273 1 -1 33.5478337194 30.008707783 7.79411682617
274 1 -1 33.3842258075 31.545833348 21.4553636294
275 1 -1 35.2202598362 8.67889319248 3.1886585108
276 1 -1 31.1794624142 40.1414366292 42.5873407589
277 1 -1 36.4232383016 30.9074984182 45.1788523937
278 1 -1 31.5107016602 46.5801232593 10.6836271539
279 1 -1 38.1153964522 41.4257203171 42.5454206577
280 1 -1 43.4106368225 21.2352620719 15.4759376101
281 1 -1 40.1290034666 2.56428383794 2.29924052458
282 1 -1 38.8572265768 40.2912069945 27.4005541267
283 1 -1 42.1353852238 26.6653388574 24.1577850538
284 1 -1 34.1405787108 41.4396336717 46.7009177874
285 1 -1 42.9271874945 29.7600289038 42.482560292
286 1 -1 39.7930239193 10.4868398512 7.28190922718
287 1 -1 30.12520905 36.7387965589 43.7081666226
288 1 -1 29.9355786298 12.5729909353 16.0329871871
289 1 -1 28.7301874445 40.2747022766 3.9012360966
290 1 -1 41.3990375372 26.6827079188 16.2525858432
291 1 -1 42.308300432 7.42859068224 11.0581146392
292 1 -1 29.2216727188 20.8799567326 0.898591468741
293 1 -1 31.1737400718 10.6876772332 16.005557156
294 1 -1 27.9404093258 18.4940104804 18.0450016986
295 1 -1 31.2947771299 30.5897535783 4.47964635014
296 1 -1 39.8999088487 47.5446298348 25.913240771
297 1 -1 34.7373351347 32.8576560742 0.594380837064
298 1 -1 42.3685087087 3.02080353654 33.5739432967
299 1 -1 37.9910275706 6.96566469055 8.6728971104
300 1 -1 35.7384119801 0.226066892015 28.0334256261
301 1 -1 28.6422633973 8.03836939901 7.48133833496
302 1 -1 29.884972616 34.0696867801 44.7658289239
303 1 -1 39.1432398658 42.2354311206 29.5449910403
304 1 -1 33.6802043348 22.900482669 24.0046644671
305 1 -1 38.1384594211 31.5886719651 27.2979946672
306 1 -1 42.3292025647 29.5333331392 36.2755466519
307 1 -1 32.357520917 22.4494793322 14.1115785499
308 1 -1 30.4207751437 26.3954904635 11.3898169717
309 1 -1 33.3057313022 44.1123065237 19.0883972061
310 1 -1 42.2464159996 8.56881591912 25.3288517472
311 1 -1 43.9024561201 32.4893939522 39.922877262
312 1 -1 41.8657215612 6.75111287135 16.8800516206
313 1 -1 35.7174288218 13.7593119857 31.9091254117
314 1 -1 30.7433512254 6.6992730945 4.450551069
315 1 -1 34.2339207208 22.6983384197 0.49294005534
316 1 -1 30.4195600149 41.4816687306 8.86810296343
317 1 -1 29.7108060322 20.9838689202 21.7084205475
318 1 -1 33.7654220604 47.8105118951 34.4101089001
319 1 -1 34.4433578849 37.2459360342 30.9713644642
320 1 -1 35.9157946802 35.2147359073 43.5036995249
321 1 -1 29.1833090097 36.3621665729 26.031861137
322 1 -1 37.9676826027 31.7205631142 44.4027331458
323 1 -1 41.5416887818 43.4499709409 13.2527043031
324 1 -1 34.4814175385 18.6144025473 43.9492926818
325 1 -1 27.850777836 18.4262770527 29.5311400961
326 1 -1 34.8883062017 9.13063798398 2.59402359774
327 1 -1 40.2038773198 5.26314899265 47.917294121
328 1 -1 28.9642201698 30.206212037 2.86792869209
329 1 -1 43.3137022644 36.9428925835 40.683767544
330 1 -1 32.7789598475 10.6962118778 39.1345660096
331 1 -1 41.7658842995 5.86995216885 44.6324122212
332 1 -1 41.4851254706 21.746804979 33.905180376
333 1 -1 37.0007861092 15.3334892131 46.6794483052
334 1 -1 31.3461320472 32.4949741822 11.8588007395
335 1 -1 31.0296912033 41.4708121399 8.72496294869
336 1 -1 31.4034561808 40.6873855646 12.7914633062
337 1 -1 28.9970293684 17.2071656917 8.72702262247
338 1 -1 40.3256094377 21.8575802776 40.3874405008
339 1 -1 42.7391082022 21.7628205942 21.0883805369
340 1 -1 30.6711934252 11.1217448654 1.96099636676
341 1 -1 36.5408424008 37.824929182 8.91017406666
342 1 -1 36.0566666707 32.0952105022 8.48488648449
343 1 -1 31.4863860435 37.8657174637 26.8202848624
344 1 -1 34.128057426 19.0873477257 0.518701153757
345 1 -1 42.0092821276 11.1251803257 30.2448043989
346 1 -1 29.0374066525 8.67014422637 35.1255574641
347 1 -1 35.3549108973 38.0926772965 38.1192480025
348 1 -1 39.4924431558 18.2857196167 23.5199907361
349 1 -1 38.9402192416 17.6257712587 41.6070316323
350 1 -1 40.7312517883 38.0888449167 26.5527051488
351 1 -1 38.2782693284 14.3084477296 18.1180468189
352 1 -1 29.5429082395 45.1582036654 22.5181370521
353 1 -1 36.7620762749 3.48511286726 40.1503413173
354 1 -1 38.0653270386 29.2159576564 26.3608046234
355 1 -1 39.7482084551 12.8829528157 47.2312562464
356 1 -1 39.6196468322 20.6758422577 28.2247666884
357 1 -1 30.8897875762 29.1862833302 0.945281365883
358 1 -1 33.1626070447 13.713773855 18.4216962008
359 1 -1 41.8763742777 25.0274747545 19.3299767336
360 1 -1 43.3965884687 41.0872148523 7.19396937052
361 1 -1 31.0883462486 34.8037897939 19.9579271386
362 1 -1 35.337069176 14.1860379634 14.0364678935
363 1 -1 34.9517690385 30.8774667109 17.0165528879
364 1 -1 37.8978306259 38.733188979 5.92490247879
365 1 -1 31.4475898433 12.1168504505 41.0431723387
366 1 -1 35.8804069961 27.7586042842 32.0710909175
367 1 -1 41.3106780065 28.5700287089 5.84328340349
368 1 -1 38.9764253346 43.4251653801 30.5329280749
369 1 -1 35.0597411278 24.4809608236 47.0509083337
370 1 -1 41.5543267041 4.44343289389 37.5489657817
371 1 -1 35.6881807023 38.3465193833 43.0858590065
372 1 -1 43.7455480197 39.8688288629 22.2763743638
373 1 -1 36.5098829349 10.9979964351 13.9372414473
374 1 -1 36.1663222501 36.9709732436 39.0350824951
375 1 -1 30.6704317288 1.75479774913 0.401094376657
376 1 -1 28.8409700629 25.1368895551 38.106660535
377 1 -1 39.1394321241 26.1656095691 16.4915779266
378 1 -1 37.6111544187 4.16566520082 18.1965271735
379 1 -1 34.5699317946 43.2949637902 27.6870243861
380 1 -1 42.2213093751 40.4324213395 44.6366249422
381 1 -1 30.9870659967 32.5965494314 13.9163545529
382 1 -1 36.4186445745 38.7292695498 27.6524651203
383 1 -1 43.463624851 44.8972741167 46.7342482007
384 1 -1 33.8182930211 39.8670537836 31.1009616209
385 1 -1 30.6063745115 39.4584672719 3.20255009024
386 1 -1 41.950212073 39.1113394945 6.06433047574
387 1 -1 41.3457025145 11.7275797828 10.2181980954
388 1 -1 31.6310325424 41.6445694385 24.6967829045
389 1 -1 40.3472886515 19.7578523867 6.62360153659
390 1 -1 32.3272775572 3.55716918486 19.1516520222
391 1 -1 30.3426225603 4.92310555708 38.6060364711
392 1 -1 43.3056454148 40.3065715953 6.84176467836
393 1 -1 42.0299498232 34.6448663743 13.6468385239
394 1 -1 30.3149288434 42.8762729351 0.0625958225872
395 1 -1 32.0920358464 18.2484490956 35.3191376054
396 1 -1 31.921347386 40.5186458257 3.95576119538
397 1 -1 31.7398580342 6.63510869885 25.0612443451
398 1 -1 44.0348488204 26.0827917718 35.6045458985
399 1 -1 33.4444662742 11.2878296135 42.5880948765
400 1 -1 31.5283486413 31.4893414911 5.93406448454
401 1 -1 29.5925298201 43.4112064877 22.4171206123
402 1 -1 29.5267463265 19.1496356794 37.2096112275
403 1 -1 28.5104265316 5.37472776363 9.53000266465
404 1 -1 39.0180817546 35.6858572957 13.9029493956
405 1 -1 31.3050579 35.0574828573 11.6034082614
406 1 -1 38.911709287 17.5309994737 33.3780684245
407 1 -1 28.3819710469 23.8397325976 40.5458463591
408 1 -1 39.7959128596 21.8013127599 10.378456793
409 1 -1 32.1877562352 12.3046822847 9.34939393345
410 1 -1 41.3544754871 7.14477176134 24.0503672935
411 1 -1 30.6469050414 11.5440596446 39.7894787811
412 1 -1 34.6948551678 35.2534762375 38.8416074781
413 1 -1 39.7718567596 6.37007368595 40.4524840663
414 1 -1 41.6701141231 15.668400051 42.8142951407
415 1 -1 28.7441356199 16.7701313854 39.2809228642
416 1 -1 31.9817828307 45.1924784642 25.6214648473
417 1 -1 34.563396021 38.9095889267 13.3877321444
418 1 -1 39.3178856723 31.7627350017 41.0056883833
419 1 -1 40.6828751036 8.24531553247 3.47420800968
420 1 -1 42.5320099857 16.6929800627 32.4795219
421 1 -1 40.8106043589 40.7616716281 6.59203767337
422 1 -1 43.1843602715 7.14013204832 26.8583847988
423 1 -1 42.4023440985 17.7121341971 35.263431946
424 1 -1 35.6477172751 22.914206479 12.3391335153
425 1 -1 36.0615337907 16.798990163 36.5809328412
426 1 -1 29.6378134049 29.0442362307 17.9717293705
427 1 -1 36.7548764084 44.8572878289 29.3603003238
428 1 -1 39.9651967209 0.877476151283 2.56305797397
429 1 -1 39.8934264217 22.3193370071 5.54197545819
430 1 -1 33.0565358019 8.36540649541 26.0882919274
431 1 -1 41.4367524239 9.63896395808 36.5777467836
432 1 -1 33.2063219949 12.5710748194 13.6622147091
433 1 -1 29.6901786411 19.8914058282 5.08929322808
434 1 -1 35.7024270481 15.7366579862 8.50824780741
435 1 -1 37.9623038066 25.3659370514 12.07676847
436 1 -1 30.9584405749 10.1921734719 5.91593896289
437 1 -1 42.1751715797 29.078053522 47.0149425242
438 1 -1 42.6553486147 4.13755761128 32.3432666887
439 1 -1 30.3065343028 9.08458211404 35.2912669553
440 1 -1 34.9936836406 18.7173522211 47.989988228
441 1 -1 35.6902530803 33.5750757408 44.7049978388
442 1 -1 31.2448431666 42.3107549785 28.7472528889
443 1 -1 30.0713513509 42.8518028009 19.8587708162
444 1 -1 40.3971072573 47.6524558363 37.7393055446
445 1 -1 30.6452342763 11.1387400361 10.5955026076
446 1 -1 32.3013209267 14.5625879633 27.910343919
447 1 -1 34.4127154692 3.03611431252 38.9626275558
448 1 -1 36.920568225 42.1274342301 27.5545465452
449 1 -1 35.1010707637 12.2599355739 21.1382521813
450 1 -1 33.646342056 13.0948349536 17.6325736785
451 1 -1 29.1488586054 35.539875071 7.10753572401
452 1 -1 41.8511122515 35.7759833338 44.5890109033
453 1 -1 41.4519676282 45.2455678197 37.0527252285
454 1 -1 29.7349338596 29.1999199878 0.964999144677
455 1 -1 32.2990711331 24.4379729706 41.1207804484
456 1 -1 28.9008473768 4.16227882179 18.9214148542
457 1 -1 40.9965345007 11.3709631797 24.6857137287
458 1 -1 34.359256035 15.2847869196 0.356003265985
459 1 -1 39.1657206118 6.25471478584 41.8233094158
460 1 -1 37.9709008921 42.9770646627 25.1191317134
461 1 -1 38.6677258498 46.1127887329 18.4699533084
462 1 -1 32.6846400426 28.7674309867 27.420089693
463 1 -1 40.3687945615 47.3136190333 24.9569242148
464 1 -1 37.7081473471 41.6043100832 3.00286938877
465 1 -1 33.7346145923 10.2632924548 14.3818981214
466 1 -1 28.316882465 22.1828034572 5.75490537638
467 1 -1 31.3735380157 4.58860251264 47.4078448332
468 1 -1 32.6528013334 31.385755574 46.4442773896
469 1 -1 35.9588105857 35.6881608984 43.9455324038
470 1 -1 41.1788259183 43.2278885833 15.5226453267
471 1 -1 29.4279430444 9.55105102503 7.44899566454
472 1 -1 30.233286459 10.4788533541 32.0162784995
473 1 -1 41.8062210065 15.532362354 7.31443426238
474 1 -1 29.9413544106 42.9004668008 29.1952357446
475 1 -1 28.4341121043 46.9847572846 29.8894313646
476 1 -1 30.8307460505 11.0299043174 46.8219648802
477 1 -1 31.4897550557 1.92471416425 6.62166963812
478 1 -1 30.9772704504 20.1575355742 12.7401492857
479 1 -1 43.5791962109 2.13554177632 35.2572757292
480 1 -1 34.176651987 8.87810446277 27.6960579892
481 1 -1 42.1965330858 36.1952759545 18.0648612727
482 1 -1 31.6848871866 27.1331984885 34.6132589349
483 1 -1 37.6940800028 13.0882644897 16.250515374
484 1 -1 30.5537443302 31.5871855023 29.0415971133
485 1 -1 29.9219330885 12.4528640198 18.6663778806
486 1 -1 40.104474554 29.9404736149 7.43742701286
487 1 -1 38.0057919927 7.7942448824 24.707322104
488 1 -1 35.2281063494 33.743465137 0.62276437175
489 1 -1 38.5098790162 23.889532354 32.1658279559
490 1 -1 34.9588143268 37.06728589 29.8739991316
491 1 -1 34.6995443297 40.1652973921 31.8513677084
492 1 -1 44.1250472244 33.5259424991 19.4183392497
493 1 -1 43.6683735449 18.250391079 10.3096154655
494 1 -1 33.993262443 25.7903809687 32.8880249784
495 1 -1 43.7344960016 21.6737918854 39.6425500694
496 1 -1 37.2190438738 25.6620637944 18.053405607
497 1 -1 28.1073645083 19.4100995278 0.631091554124
498 1 -1 38.318759447 4.2230175489 37.5049851648
499 1 -1 32.2510943812 3.13872359458 14.128091071
500 1 -1 41.0064780193 35.4569193909 47.2197880125
501 1 -1 43.1603737441 11.7054975707 9.05401453588
502 1 -1 41.1193831476 7.88101668002 7.7152473374
503 1 -1 41.5345971462 4.89695774084 5.9796561187
504 1 -1 31.184911959 10.9249273351 40.4706524443
505 1 -1 36.3956475085 15.0882958669 30.052881657
506 1 -1 36.0263885565 25.229560548 3.91746925894
507 1 -1 28.7651756681 8.61855444361 36.7862401395
508 1 -1 28.7719965637 41.2684347547 31.3994457169
509 1 -1 35.3519007723 9.61962599692 23.4876370911
510 1 -1 35.0749623943 40.8237005488 22.7983318537
511 1 -1 34.0998941051 30.5445733459 46.9369240155
512 1 -1 40.2423425733 46.9544866799 47.8114372008
