LAMMPS charge data generated for ESP error-estimate validation

512 atoms
1 atom types

0.0 48 xlo xhi
0.0 48 ylo yhi
0.0 48 zlo zhi

Masses

1 1.0

Atoms # charge

1 1 -1 26.9914598369 16.161517181 10.9530945968
2 1 -1 44.381557183 29.399666531 43.7187599833
3 1 -1 15.49948234 3.72135998436 22.9479140584
4 1 1 21.3572833737 17.7096749472 17.8707172853
5 1 1 7.94378747516 9.26624192552 28.8678983335
6 1 -1 24.8578778154 39.7873068766 35.5327725845
7 1 1 31.2059352472 39.2730483644 28.4554780903
8 1 1 12.530290432 7.66285722426 8.35014508967
9 1 1 30.938678704 35.2216043873 1.33908192111
10 1 1 4.56287934318 0.317797990432 35.4144303118
11 1 1 45.7211313896 44.1120014569 40.3081917662
12 1 1 30.8206818439 4.00470682012 44.7305108126
13 1 -1 29.0277939947 25.4386783113 36.3175108766
14 1 1 13.5783364265 16.8047467074 9.15520122521
15 1 1 46.2444867699 34.4940867046 37.8442976191
16 1 -1 20.6775340002 25.9545226212 13.8573651316
17 1 -1 33.2631436087 12.5417042972 15.4672922883
18 1 1 46.2102006286 30.447966817 42.6506923606
19 1 -1 3.42930814892 38.1220331881 21.9103731888
20 1 1 5.07830612272 19.2122025748 6.3996095911
21 1 1 9.86295829144 24.3121571811 35.3443538439
22 1 -1 25.4748884852 2.02237225447 42.0444658451
23 1 1 12.3430664615 14.7269183374 10.5809473233
24 1 1 9.27928260709 38.9035028357 10.7325776923
25 1 1 33.3428017493 39.6288433568 27.1410104355
26 1 1 15.6621153432 2.33693883233 12.2923129537
27 1 -1 28.3321826708 30.4105554256 24.3357143179
28 1 1 32.3289612741 43.9222298338 37.5121686762
29 1 1 44.3322917918 28.8988964685 26.814724881
30 1 -1 28.8085520949 47.011012206 23.1650097607
31 1 -1 4.31444707055 32.6661703856 31.3979803566
32 1 -1 9.18663627916 38.3431499182 1.06006389421
33 1 1 27.6896660461 44.5316794863 32.1568756184
34 1 -1 4.07495081828 15.4113468676 6.46115574691
35 1 1 12.5029255796 13.6918740078 21.8358968136
36 1 1 38.4491866913 46.0902182564 28.8443675498
37 1 -1 14.5886660028 14.7721714873 9.71417498534
38 1 1 23.3232535591 8.55225427885 28.8007266349
39 1 1 15.8742577247 41.866625063 7.86256145589
40 1 1 29.3148121503 37.2792583192 18.3512415534
41 1 1 7.03949805498 18.3041853622 27.9091810075
42 1 1 33.2454678697 24.7060004164 44.7920321022
43 1 1 16.9625145323 20.0910822746 12.7719185974
44 1 1 23.6258403207 24.8876041595 3.05645646592
45 1 -1 19.2005881102 21.776131577 8.85086680029
46 1 -1 42.2102873364 30.1712360253 47.0676590647
47 1 1 15.6198922578 43.1025889174 44.6475542829
48 1 -1 29.0682131647 47.4888838624 12.6676026075
49 1 -1 13.6345856424 14.9236541929 29.3052430999
50 1 1 10.6131309055 25.8109827206 8.53720989356
51 1 -1 43.0877049862 43.2407736672 42.1980983245
52 1 1 44.1182231044 46.8721514273 44.5445483691
53 1 1 44.5315340908 27.9730069261 29.2525499707
54 1 1 23.4659408669 27.9141064638 7.2914929765
55 1 -1 36.9066585022 23.1525980354 34.7647206902
56 1 -1 46.8977042322 2.52433898586 40.4221663863
57 1 -1 21.1253892599 3.01019317959 36.4052780907
58 1 1 40.8669233842 27.2437603248 8.71708983094
59 1 -1 39.2482172957 27.8960248939 25.0300973367
60 1 1 2.80628458361 20.2887566341 22.2078909404
61 1 1 19.8292212458 15.7436020058 42.5202585178
62 1 -1 21.6690774796 41.3788175868 6.27186194834
63 1 -1 44.1105558501 24.2916802042 34.0447129806
64 1 -1 45.8044900824 35.884558957 44.2963973567
65 1 1 31.980481997 18.2971064063 45.418108144
66 1 1 13.8879121214 26.3094055375 4.31634085806
67 1 -1 17.8634635574 33.3621450747 42.6202822602
68 1 -1 14.251896359 20.1010674741 35.6496197939
69 1 -1 44.6368771658 31.9929919708 17.1295463417
70 1 1 17.2567375909 5.02233846196 22.1423060946
71 1 -1 31.5966363562 16.7404817041 10.8303258693
72 1 1 28.3285326699 4.27295731962 39.6782077127
73 1 -1 17.0818095635 32.4490141239 33.7731177837
74 1 -1 10.7636709755 13.0689216189 17.7087468581
75 1 1 41.3796284309 9.26754358345 3.48283156233
76 1 -1 10.6422467315 2.10709894514 33.5147738889
77 1 -1 15.0568545501 37.8186949928 40.9215423436
78 1 1 27.1851816345 21.0220929785 42.7657432215
79 1 1 15.5657201249 47.016225376 40.8421725004
80 1 1 28.3582364369 27.0257175727 34.1750205517
81 1 -1 21.2999190036 42.1678746021 46.0162162289
82 1 1 29.4885799043 9.67775765543 10.4539007347
83 1 -1 19.3440899939 20.9743288087 32.0172374144
84 1 1 35.1742347279 46.7115949748 35.3744825185
85 1 -1 2.92857185582 32.0965114113 3.71550987471
86 1 1 9.40241361946 28.022910214 25.356073491
87 1 1 1.66805333644 26.5766190366 23.2230003477
88 1 1 36.5341615205 5.09194543703 9.22500498528
89 1 1 17.5267182661 39.5862654569 16.3505640688
90 1 1 45.3471603905 25.988157761 17.7212525897
91 1 1 6.01044968463 35.0166824528 8.02786402933
92 1 1 44.2508308872 5.18695431197 7.36873699121
93 1 -1 10.0710707662 3.90318186916 18.6767505551
94 1 1 19.7625675064 47.5000675117 4.99642506215
95 1 -1 28.649391029 43.7938781683 34.2510678908
96 1 1 7.24682151882 19.3200249969 47.0513764719
97 1 -1 28.4070952883 12.4601095446 24.4350624461
98 1 -1 21.6242780163 44.1531842773 22.947448371
99 1 -1 12.97286784 4.78954011726 9.1546638504
100 1 1 46.5861122929 32.802584935 35.4702804757
101 1 -1 13.5486059867 37.9494310364 41.0118432052
102 1 1 45.7078672327 21.8907274848 45.0339224821
103 1 -1 20.5452518827 16.3834649108 24.1566843558
104 1 -1 37.830044798 22.1124544634 12.8087657851
105 1 1 33.2423768176 19.9090320352 47.5926065096
106 1 1 47.8728647928 22.3920207859 0.542801132252
107 1 1 34.451626992 42.1108456685 24.2540887539
108 1 1 28.7478135499 40.7266116677 0.625451451211
109 1 -1 12.1384426343 42.0066036207 32.8239274339
110 1 -1 2.17729014243 40.6458213924 6.55293773877
111 1 1 3.21410173414 3.68569489732 12.4769986422
112 1 1 13.9296980289 43.5331132143 44.4741661241
113 1 -1 38.1121510943 34.0939639383 37.2238165887
114 1 -1 24.9072114821 14.4607855026 34.3333263217
115 1 -1 27.2008801016 38.255010848 13.3540736602
116 1 1 44.264492639 27.5576335894 23.3605267741
117 1 1 21.2004577731 9.72250646862 31.7221330161
118 1 1 45.0314332001 19.8544705468 29.5404201902
119 1 1 1.68974889586 8.11967086949 17.5329744712
120 1 -1 34.8477187708 9.82889580954 5.19527608113
121 1 1 1.91174855095 2.63551382948 36.6139855493
122 1 -1 13.5798854278 42.3837738657 8.64886324136
123 1 1 45.507598997 32.4816082853 47.5334151525
124 1 1 23.8909840127 2.98259265595 44.8546207843
125 1 1 17.1944503275 18.5815511097 36.6755588428
126 1 -1 25.3676358817 15.8737477281 42.769715742
127 1 -1 31.1848408568 17.3610763594 7.24414154543
128 1 1 37.7384462436 43.1206687826 22.3119874604
129 1 -1 28.2408830535 44.6905777126 17.8537829119
130 1 -1 7.18364800693 35.8209988191 18.2095645039
131 1 -1 32.1895399436 4.80703256939 6.75632159693
132 1 -1 20.1509494609 10.8762649805 13.5826963865
133 1 -1 27.4097483748 8.86871443186 28.7395352643
134 1 1 1.23762201306 21.7681733863 17.8703493388
135 1 -1 24.6237782358 6.77300720454 27.9785044814
136 1 1 13.0074801045 10.4646968077 6.05715121413
137 1 1 10.1961418223 6.30505721722 16.6553201899
138 1 -1 1.80604242402 45.3042391907 41.1346290404
139 1 -1 26.7928993499 24.911309258 0.0445496286146
140 1 -1 30.3828026007 31.4532754748 3.21206613964
141 1 1 3.20873532997 25.3749830189 1.70535554864
142 1 -1 24.3643977763 37.0486104198 8.16630313067
143 1 -1 15.9050665596 3.59125489608 5.79642264936
144 1 1 28.8228436959 36.2238926328 47.4632255149
145 1 1 45.3585746938 16.4272244748 40.9666211213
146 1 1 13.9741757045 42.3267884091 13.7835862398
147 1 -1 1.17230587087 38.9867013072 36.9985668379
148 1 1 2.20878703028 26.9834819352 9.05231951493
149 1 -1 7.24948008822 30.0006732526 0.673447297667
150 1 1 46.3295394113 33.1601232812 43.3270668918
151 1 -1 27.2926540512 31.3504431753 32.9194179797
152 1 -1 0.459868334 23.6173609016 28.310479764
153 1 -1 34.5385365082 44.9021203647 29.3889039457
154 1 -1 36.5508208176 4.92893532229 46.617904818
155 1 -1 25.4308150109 9.43390531749 21.6168390181
156 1 -1 12.3860896075 7.86492607389 10.5235525951
157 1 1 13.4055411071 36.9621269519 15.2261618592
158 1 -1 43.9713900391 41.8764154501 35.7076844716
159 1 -1 5.40154228638 14.9109610226 36.0727943562
160 1 1 14.9398727672 25.9056474999 32.5485335861
161 1 1 3.29577133567 40.0529118913 15.5773706039
162 1 -1 21.9534399992 9.61400229941 47.6753760039
163 1 -1 43.3333110585 8.81404345061 37.9981947263
164 1 -1 10.9752150465 40.0482135305 31.1903079635
165 1 -1 0.691579113708 23.7804486728 3.336056072
166 1 -1 34.0853225802 8.15538225119 46.8677875575
167 1 1 20.3578154459 18.0323897419 15.1057424988
168 1 1 11.4691392171 23.7554299017 0.315796392151
169 1 1 42.5334348401 3.00380130874 26.3230325955
170 1 -1 13.6126358091 1.08131110221 25.6479858572
171 1 1 7.03659738916 37.8228731481 27.6073096492
172 1 -1 5.09647040912 35.1942493414 47.3480455314
173 1 -1 44.3895946569 7.23246948979 40.4892317843
174 1 -1 20.6164844672 45.9227010982 4.87601730065
175 1 -1 19.3654399084 34.5400488521 15.5336805877
176 1 -1 5.15652223988 5.78505237158 8.34737838656
177 1 -1 1.63547550197 5.52962905172 32.348225872
178 1 1 23.0734543482 8.74362266213 33.3359235243
179 1 -1 46.7394447238 21.9433377868 9.85612396786
180 1 -1 7.31166093387 37.4909852166 44.228964273
181 1 -1 35.0371753104 10.0187381704 14.5419102282
182 1 -1 9.2298419012 1.98894145866 11.5433119589
183 1 1 6.60110103305 23.5648306607 23.5164793148
184 1 1 20.4894009181 39.9180014106 46.5188243646
185 1 -1 3.8674036467 7.4433537152 4.16295649358
186 1 1 16.6299824223 17.8612331815 32.3221041865
187 1 -1 36.3724001501 39.8684116112 27.8981367084
188 1 -1 17.6346205222 42.0063208715 31.5689916723
189 1 1 12.469645681 16.823259147 7.31135251953
190 1 -1 11.0837507497 40.2636864681 33.6462098028
191 1 1 17.7034842629 6.55750214056 34.5073667262
192 1 -1 32.5413203451 42.4640619356 8.11431402588
193 1 1 43.7396189828 6.38494686887 10.4676963233
194 1 -1 6.66937909074 3.09675982327 25.0152802392
195 1 1 26.2583938891 12.1440466214 45.6145582101
196 1 1 19.0968397885 15.3611745967 24.6983535073
197 1 -1 20.5100067769 20.0078678391 20.2208409039
198 1 -1 37.2552939343 36.8910826677 3.84243228165
199 1 1 33.2397092225 8.93823694002 23.747529999
200 1 -1 5.19052999558 25.2424798097 16.2839056789
201 1 -1 14.9440378535 8.07253635285 8.16403143989
202 1 1 12.8865349951 20.0620333257 10.8190538152
203 1 1 9.87997462859 7.18796010388 23.6204646005
204 1 -1 29.0997769885 12.0816564042 8.527271599
205 1 1 39.0885702038 20.020754978 22.5160754318
206 1 -1 47.0961093317 11.4867236352 1.52616432114
207 1 1 20.1974119101 18.8980847904 17.8049833388
208 1 -1 44.3931889349 0.374520808912 12.3331301227
209 1 1 46.1867326795 40.5154930701 42.6110597841
210 1 -1 41.2303991268 33.0314908555 29.471742891
211 1 1 29.8655895381 38.8248329097 25.5588444538
212 1 -1 34.5908206433 16.6540531832 19.2166133071
213 1 1 19.9529994532 16.6157527139 9.15278271848
214 1 1 17.0470474753 27.0715222912 3.14403396103
215 1 1 36.1088546088 34.9101328571 36.7043506444
216 1 -1 24.0384467446 29.818015843 30.9921686863
217 1 -1 32.7134495339 23.8027099706 13.0437736864
218 1 -1 24.6994690607 44.1530817951 25.6995759154
219 1 1 43.3309990099 34.3102885589 38.4861600833
220 1 1 32.7451950657 35.9220365939 30.1936849072
221 1 1 39.7198585864 14.5446291794 13.7391877481
222 1 1 22.0266892287 34.850378942 10.0763407515
223 1 -1 40.8972904352 12.0382993789 14.3796486293
224 1 1 28.1646165863 8.66697451506 7.71147127809
225 1 -1 11.9038498961 9.9583364973 6.99092024526
226 1 1 9.98936937198 26.2723132345 32.9962282987
227 1 1 34.1684363249 33.7430672943 40.4678085253
228 1 -1 2.72683409032 0.28139572738 15.1843095602
229 1 1 3.57158389892 43.532990375 19.4663663623
230 1 -1 34.2810559604 44.0858406502 28.2237100664
231 1 1 19.2410047855 44.8657624986 18.1367644789
232 1 1 32.8801226585 0.384551315711 44.4801059765
233 1 1 45.1215266006 16.0284838738 31.2307107002
234 1 -1 37.2434420908 8.27201833154 8.9403462357
235 1 1 41.995030737 15.1724869138 35.0358629031
236 1 1 40.0602616626 12.4332492858 42.1198831434
237 1 1 21.9974170413 8.94071506974 40.0908682748
238 1 -1 18.9771963565 2.09790597489 35.2749052168
239 1 -1 12.0091875298 46.8655514213 35.4533359759
240 1 1 35.6115865758 38.6112018315 43.5990572849
241 1 -1 3.88574727469 22.9714281155 20.780340063
242 1 -1 28.9681073542 17.6779160428 17.9986041161
243 1 1 8.24362450269 22.5903289999 13.2376252
244 1 -1 25.9486576853 10.1974715006 0.491922225777
245 1 1 7.65770022145 20.9232998417 43.7365354502
246 1 1 17.2129440426 2.18028222456 39.099142609
247 1 -1 12.9844107741 22.9878656999 31.8603884043
248 1 -1 10.3433704734 4.12727441032 25.6434578855
249 1 -1 4.273272943 41.7726738781 0.652826018909
250 1 1 29.8064064781 41.5975514947 30.3329815351
251 1 1 45.815504303 44.8648515144 6.8999820751
252 1 -1 44.2875643388 16.2579196799 36.3913604505
253 1 -1 4.62340408563 4.56624121936 45.6875917265
254 1 1 24.0252069503 15.6293798344 8.30222989593
255 1 1 38.4936057535 13.9671281837 8.62680384032
256 1 -1 5.26948127352 38.5096394964 30.9616930446
257 1 -1 40.4809119244 41.6749681883 7.63608456366
258 1 -1 8.50171556656 23.5809697101 45.4530567084
259 1 1 15.5974819668 18.3303984968 6.96462742698
260 1 -1 44.1190358319 30.3020329574 17.6534436913
261 1 -1 24.4350684414 14.6487020779 9.8593355456
262 1 1 4.55813525047 31.3833266935 45.3441364954
263 1 1 45.9508644132 6.11622956678 18.405294945
264 1 1 20.3865212195 25.6626421912 36.5112630798
265 1 -1 12.918446775 39.485994728 40.4081104192
266 1 1 9.95146503733 37.3437233799 44.9608111208
267 1 1 41.1881500148 13.5091312744 29.9407594453
268 1 1 36.0005378521 41.9751699938 6.09873237117
269 1 -1 11.6138439287 23.3094961834 2.31050253621
270 1 1 19.393743443 27.3280854218 20.7811808057
271 1 -1 33.6180015404 29.7958793656 46.7795295725
272 1 -1 44.9305851303 40.9185163519 27.992094904
273 1 -1 14.9879839827 1.20759447155 24.8789408554
274 1 1 6.2852367878 15.5119471045 2.48405626491
275 1 -1 26.5440885154 33.4301795706 36.8573776257
276 1 1 7.23246711691 17.9993077475 12.1768867288
277 1 1 28.4129262022 9.1352498899 21.953349684
278 1 1 38.9263464391 30.6685588805 3.71086643812
279 1 1 5.51619829442 16.8819807476 32.5912038159
280 1 1 2.27120840541 5.08591343114 36.7453881404
281 1 -1 25.0373785654 19.5332056444 7.8959798192
282 1 -1 18.0603569407 3.34384489406 27.3088332556
283 1 -1 33.0619186832 7.31889700937 26.5742802641
284 1 -1 1.45163114266 15.058869083 36.9130673209
285 1 1 47.1065905631 26.4323494991 7.81419763099
286 1 1 27.9087264509 47.0074138186 17.8905529306
287 1 -1 40.1473286583 24.5390812852 12.3824396764
288 1 1 44.6692306888 32.7369846136 16.0112529736
289 1 1 40.5955169163 23.9683857616 31.6904228575
290 1 -1 19.5982159668 37.7173707587 4.56151383582
291 1 -1 12.6115337974 23.0458686499 35.061645174
292 1 1 22.3902262366 42.5766026591 40.58466333
293 1 1 12.7690368603 15.1079680728 6.82206860896
294 1 1 21.2136102313 4.22006848224 14.1868123737
295 1 -1 5.65349216413 38.5454430355 47.8136880724
296 1 1 46.430076175 46.7222833997 14.1145365955
297 1 1 25.393555389 10.324738858 34.4066281457
298 1 -1 22.5232752491 1.35413453468 44.3973222226
299 1 -1 5.62281892996 0.630022456369 37.275912696
300 1 1 4.73264510405 10.9426445164 34.1237540223
301 1 1 38.3218248889 7.3735160242 18.2752332813
302 1 -1 0.882462560114 44.8033119492 28.8791347433
303 1 1 1.27324186489 8.2164145905 10.4297344302
304 1 -1 47.1638175349 46.3160732512 8.87945822314
305 1 -1 36.7240304182 32.0005885136 36.9699311576
306 1 -1 16.6887952778 15.8175893946 23.4861699198
307 1 1 47.7770910575 6.1440540323 20.2375742367
308 1 -1 27.2063045654 36.2937636447 5.67012425887
309 1 1 32.9827333548 24.3744107183 26.3204072521
310 1 1 7.07685199737 30.2371028061 5.29693188135
311 1 1 4.94071219723 18.8933621281 23.0321246392
312 1 -1 1.50158562065 15.9458236241 32.4842418501
313 1 1 26.4102138863 44.3805972008 28.536327974
314 1 1 41.2060623059 5.11917333856 33.4685744537
315 1 1 11.2824023726 37.1297186174 6.15258731538
316 1 1 39.1290026708 44.7707617486 30.5571156143
317 1 1 10.5403826721 46.2094652447 27.5432129894
318 1 1 3.26970554985 21.7490618922 40.4609121641
319 1 -1 47.3163764614 35.6830170932 21.4352780711
320 1 -1 26.6982738994 39.7379258512 14.9677197759
321 1 1 22.76230626 38.4721701774 8.96235955266
322 1 1 8.36930509332 16.3948645563 3.2824083884
323 1 -1 13.1520133411 5.48445174607 44.3758876534
324 1 1 14.8720949552 18.6881520792 14.6115170012
325 1 1 6.82800269037 24.5166465676 0.864214171229
326 1 1 9.25328289463 41.2663708358 4.38118884002
327 1 -1 43.7780522154 47.7360574012 42.996421329
328 1 -1 21.6099418018 2.46183188961 36.5087260555
329 1 -1 45.1884622118 12.8944213157 1.38686748575
330 1 -1 6.92279155443 37.1570945282 42.5017313179
331 1 -1 5.23169315173 13.7033309797 19.6671938742
332 1 1 33.4443462575 32.1340560151 13.2257165735
333 1 -1 47.242290647 3.89157597862 40.4115728592
334 1 -1 26.6503901342 46.5549289971 41.1813589827
335 1 1 36.2610122769 0.388653392231 20.0232491336
336 1 -1 2.34140418228 10.1574703903 2.57842240176
337 1 -1 41.4287907855 38.4874287575 14.8996973295
338 1 -1 19.6003098094 45.9479546465 47.8792966295
339 1 1 9.25284176178 14.4381886844 14.6818060658
340 1 1 11.721564541 15.2505784331 46.8733674349
341 1 1 6.38491637841 47.1698865071 39.8159770523
342 1 -1 16.6030564329 0.22441014628 14.3445097939
343 1 -1 39.776089068 25.1647129187 37.1354576429
344 1 1 33.363389938 0.514212882272 46.5510831558
345 1 -1 29.9776136487 11.1540558939 18.4508645728
346 1 1 25.9829438287 39.8223991136 24.1463366102
347 1 1 26.6082134156 35.7162563904 44.8507796106
348 1 -1 6.13057061805 36.1658922378 28.6185191964
349 1 1 47.0468902028 37.8065351341 39.3617516059
350 1 -1 10.2883655364 1.64093255904 41.0851863821
351 1 1 9.54704773498 37.9750484536 35.5125299851
352 1 1 25.27536982 34.1255173107 21.177613257
353 1 -1 33.9565028184 10.5058476107 35.1263350452
354 1 1 18.197854506 42.5012814381 31.8853866572
355 1 -1 24.2765372749 31.3174859452 5.64058330933
356 1 1 13.9892408575 32.7780473967 5.33040343363
357 1 -1 31.0327792562 19.4113753898 6.84569918464
358 1 -1 34.5649316799 34.2400574497 32.0943114871
359 1 1 0.248865148823 39.887131373 39.6938847495
360 1 1 32.4138780723 36.9760889768 37.812647247
361 1 -1 7.80734179763 13.3788319091 32.8470513447
362 1 1 9.75790499205 8.33855280786 8.70294458142
363 1 -1 6.06037857232 4.37582335884 33.4311925977
364 1 1 13.8153301158 0.861059143056 11.8625511052
365 1 -1 45.3856374466 0.928867852261 33.4075000764
366 1 1 43.764127856 44.235645871 47.2459369863
367 1 -1 19.7354985762 16.2068365805 22.7281290794
368 1 -1 29.4001341789 20.7299888875 42.1568690301
369 1 -1 25.4710402165 12.6105923649 23.0954843292
370 1 -1 27.1583592704 13.7340285414 31.1029251455
371 1 -1 38.1656980292 40.3244025956 31.7352871075
372 1 1 35.9171961317 40.7742537412 31.3642977135
373 1 1 42.0249878405 43.0116174719 21.1828313839
374 1 -1 33.573746815 37.1968822022 30.1614106185
375 1 -1 14.8505273199 0.39854201085 7.92405288852
376 1 -1 35.4907293802 13.8300477993 21.3354140003
377 1 -1 32.6954152675 23.3500886348 29.7283605606
378 1 -1 17.1317567738 27.6246742255 25.0721571103
379 1 -1 23.9989285775 19.3687670184 20.5639582
380 1 -1 15.9572498127 7.88105980657 2.47981207555
381 1 1 13.7279376198 27.7363348986 20.7374866557
382 1 1 11.929121508 8.72240352611 32.7840476358
383 1 1 7.37116304577 26.7733451029 17.2315570708
384 1 1 21.9516750553 13.0685694256 3.18434776934
385 1 -1 31.4295911747 30.7281366976 44.7391251994
386 1 1 14.1121196502 6.02721234775 6.34522612862
387 1 -1 31.4726300009 32.0703903 24.8279664764
388 1 1 34.5840759205 31.7689923817 19.9735183536
389 1 -1 29.837512785 24.1744523939 41.4603504894
390 1 -1 25.3276855969 23.3622221466 32.6689218697
391 1 1 11.5799537729 23.5909351191 2.17375535239
392 1 1 19.0504570307 44.4746757273 0.783799332829
393 1 1 14.4064166302 39.0509608516 3.76445919891
394 1 1 10.1193609396 12.9315127554 13.3399820945
395 1 -1 12.5763662722 46.5547270847 21.6261908514
396 1 1 2.86199438971 32.9086852286 46.9726821703
397 1 -1 31.3978798746 37.7032297896 8.24959313258
398 1 -1 21.6058274089 40.3738315865 19.0661515701
399 1 1 40.1771728907 15.1492608908 15.7437324831
400 1 -1 0.578210673394 20.3429384472 41.8927869442
401 1 -1 18.9028678574 3.03259307601 17.9949978734
402 1 1 1.56074787331 22.0045955923 4.60757152367
403 1 -1 30.8459857488 47.7413895533 17.8613845318
404 1 -1 43.494542402 29.4855184474 39.2338013213
405 1 -1 37.6752597665 44.042276818 42.0757867841
406 1 -1 10.1283082375 19.631958647 28.8890849785
407 1 1 36.2069781272 39.1233507924 23.8929790735
408 1 -1 42.3958109969 7.4785531343 37.8948148328
409 1 -1 29.1828777882 25.6481036922 18.6457086162
410 1 1 25.4804044337 29.2891489598 5.00315002933
411 1 -1 4.43853109527 47.4843179829 1.0885526713
412 1 -1 41.2665738627 17.4108271742 13.9660514278
413 1 1 28.1307723409 20.789166116 47.6840689646
414 1 -1 45.1143403636 13.3171911963 17.8778289846
415 1 1 21.666126833 11.3742802513 4.79363557059
416 1 1 19.2089527281 32.6700173765 23.5345481083
417 1 -1 11.9700939731 41.877948983 13.8090723102
418 1 1 32.7595285406 11.2787338349 5.50135546234
419 1 1 21.6017886412 31.5586290314 26.0527695281
420 1 1 5.91530822605 35.435470548 40.483111677
421 1 -1 3.37906967932 26.8225857282 45.7553880411
422 1 -1 11.9965596298 26.061160089 38.8624626174
423 1 -1 32.6541118251 5.94422322534 6.6987785597
424 1 -1 37.8272819048 24.5261619414 18.5027646659
425 1 1 12.1265539461 34.4098468576 7.8062265212
426 1 -1 7.8230138645 40.2438109682 34.1391401865
427 1 -1 12.7776872494 34.0773539565 46.0979178751
428 1 1 41.8374904137 42.9905556638 2.87035193945
429 1 1 25.7371285737 39.0752758933 8.11751287968
430 1 -1 46.2139103991 14.8581964284 1.62267804023
431 1 -1 16.797107736 35.21990963 22.9901214171
432 1 1 32.7744087143 21.3359953421 36.6532661875
433 1 -1 33.1849974966 37.4885722811 29.6486845082
434 1 1 2.44315851971 38.6385787468 45.5730742629
435 1 1 38.3162889897 12.3664269693 47.0316801315
436 1 1 35.6100932193 5.72652073992 14.6748298627
437 1 1 20.8268598436 31.9171021628 40.5345623239
438 1 -1 46.2622528244 39.0666368753 24.0969065894
439 1 -1 23.9942138698 6.99677518382 3.43067186446
440 1 1 32.2789575454 26.6427569328 1.49292085914
441 1 1 29.1134117943 36.6053749724 43.8522185917
442 1 1 26.970259788 13.3983392209 21.627574922
443 1 1 12.7313939963 8.50897693462 7.45031915288
444 1 1 37.5793579561 11.4288224156 34.8019772274
445 1 -1 5.8206988657 41.6747165371 16.2925872333
446 1 -1 38.2494465473 38.8440350075 42.0361548289
447 1 1 28.7567817603 44.2465817778 45.0264441711
448 1 1 44.5271743855 47.4619884148 7.8015504923
449 1 -1 22.3711858569 17.3587049754 16.5677286287
450 1 -1 38.0744975371 16.0910298433 20.1593251314
451 1 1 44.3239748182 10.0723173469 19.1185099439
452 1 -1 39.6146592458 15.2928768846 41.6418017834
453 1 1 11.455355253 8.40973705641 37.3915870554
454 1 1 41.6353113806 34.4262120564 42.0782937195
455 1 1 44.377985022 27.3780128861 42.7972681859
456 1 -1 6.95130012407 12.7144354235 6.61698830145
457 1 1 37.8251271254 31.1322509534 2.90466578164
458 1 -1 17.3750711835 28.9459092521 40.0850227903
459 1 -1 41.1987417064 34.7340476777 40.8879096734
460 1 -1 34.2131047259 44.016946792 34.7439867077
461 1 1 17.5946318991 45.5811326922 14.9102261677
462 1 1 31.5161163902 45.8957081003 24.6724025789
463 1 -1 4.90394653401 1.8324137709 44.2904491491
464 1 -1 3.8116492707 4.15818527642 47.7709795231
465 1 -1 25.827744694 41.6363878427 27.1701829743
466 1 -1 43.1154475065 27.2472756814 7.11517000469
467 1 1 1.9731168335 45.1075452804 38.4965411797
468 1 1 1.66508134715 43.1341309218 12.3591254364
469 1 1 18.7851495935 19.2531080603 5.5636740234
470 1 -1 8.99247649302 16.1176533046 41.4298586349
471 1 1 22.7101161173 9.0275660176 15.1881070164
472 1 -1 14.2292880989 0.295478891596 44.6725943863
473 1 1 0.63786383351 12.5504306805 29.4818557589
474 1 -1 29.6821624965 12.8140482219 22.0653067906
475 1 -1 28.961335899 30.8803802834 11.7725946392
476 1 -1 22.4093553216 10.7566082121 5.4527738442
477 1 -1 16.947201196 4.59340988238 19.2103309658
478 1 1 38.5111471595 2.63307012263 22.26347247
479 1 -1 3.10167510851 10.1533819778 46.436553082
480 1 -1 5.63522754505 30.5742828449 26.6553070069
481 1 1 29.9881092124 7.41639851089 0.276860185514
482 1 -1 40.3637599575 9.54578922545 23.8874388625
483 1 1 33.8836366767 39.6212496888 26.2007982944
484 1 -1 15.737704267 37.99144372 44.8662066658
485 1 -1 28.2528160288 23.8044429683 35.6391919285
486 1 -1 30.2569485987 7.28742894855 40.681927107
487 1 1 13.9921830338 41.1133130599 38.8751804882
488 1 -1 13.431979545 31.1512748207 43.7070634307
489 1 1 19.9213106051 25.214022086 34.5423842314
490 1 1 20.9711734539 21.0318970678 30.9544407193
491 1 -1 40.9824501851 21.5215739728 42.1139628187
492 1 1 9.14123415841 25.7141135698 24.6767754081
493 1 -1 12.3093390904 30.6150358938 30.5714897433
494 1 -1 25.9446944639 47.2250662464 24.3882726167
495 1 -1 21.8546763611 27.5693818855 40.7011865448
496 1 -1 42.4678837749 31.481778843 46.2771317718
497 1 1 40.7246142781 7.75897479583 43.2584518421
498 1 -1 23.7161791129 36.8186787032 1.17072176216
499 1 1 35.3937368317 41.1495213515 45.2300428885
500 1 1 1.07521699638 16.2052594807 15.3381127785
501 1 1 21.3781405869 36.9022535057 30.9562026808
502 1 -1 16.6147666983 8.46503581452 37.4140029941
503 1 -1 38.2845181463 4.36655445803 13.4599579984
504 1 1 16.5101438408 47.3050152906 37.0678296589
505 1 -1 2.84243238135 47.0381539637 15.2619713134
506 1 1 11.8549833029 3.68273100071 16.3880631242
507 1 1 2.64779013941 34.3943945897 9.77299271935
508 1 1 10.1381546812 24.1680123446 7.59424750101
509 1 -1 9.89616475336 9.49831109312 14.869091636
510 1 1 30.9064089439 47.552709346 1.80352354646
511 1 1 43.5688075093 17.019309464 3.35852357184
512 1 -1 42.6879879374 3.87217737195 8.68536614222
