LAMMPS charge data generated for ESP error-estimate validation

512 atoms
1 atom types

0.0 48 xlo xhi
0.0 48 ylo yhi
0.0 48 zlo zhi

Masses

1 1.0

Atoms # charge

1 1 1 7.32257290208 12.0897352048 14.9838137129
2 1 1 12.9308462265 40.6029389284 43.033346674
3 1 1 10.4909648975 21.8709934526 12.17570576
4 1 1 18.1909304015 38.209396065 15.4649406215
5 1 1 9.5877452674 6.99912789728 45.8585428058
6 1 1 5.55057628534 15.9077683913 15.2132374761
7 1 1 3.91715582867 10.4310963351 43.6215989417
8 1 1 10.0068464637 46.96215381 30.419507849
9 1 1 6.66235556992 35.2757755805 24.8473406716
10 1 1 8.83872614207 27.3544317666 37.7177336529
11 1 1 8.82980898858 19.6991924434 46.092278252
12 1 1 19.729115901 30.4086820509 5.3971205273
13 1 1 13.1631107368 26.085329619 32.450525889
14 1 1 9.49331705793 26.8606509122 3.23818787166
15 1 1 16.3729428339 6.55504037478 8.66573376554
16 1 1 15.6646205056 35.2571395244 1.38228279939
17 1 1 12.0893112595 1.53862486826 4.00894771595
18 1 1 4.68653957052 16.2488946651 14.3891112496
19 1 1 18.7810847483 3.56491059171 6.43150997191
20 1 1 16.0792809381 35.5209351186 14.8953064346
21 1 1 11.2867121419 22.5041082129 9.06555448756
22 1 1 4.39630979271 22.4425248284 21.649558576
23 1 1 16.2176639727 3.94444499777 9.0512706973
24 1 1 13.9619180539 43.2878404341 27.010532394
25 1 1 9.24992677093 32.5680142535 33.7482876495
26 1 1 9.8204132908 33.7600156713 30.3627268021
27 1 1 12.7751737889 41.8117922342 4.41697748949
28 1 1 7.18601078237 32.215956909 16.8942707647
29 1 1 19.3765577643 41.7961546263 27.7110258566
30 1 1 15.9527226004 3.11971885065 25.2411647934
31 1 1 6.11148531974 16.7629670623 23.499270879
32 1 1 16.9846368911 40.7297749699 9.09671867707
33 1 1 18.7463554026 14.2828275166 43.0800201597
34 1 1 18.1768679668 27.620366438 37.2672885005
35 1 1 6.10396523917 4.43655119138 25.4780681072
36 1 1 6.92773706357 43.7544034596 20.7835393301
37 1 1 10.7678212149 8.56389566479 9.66719646354
38 1 1 11.1800819022 32.2415670176 6.37040937876
39 1 1 9.64517405857 0.761250070592 34.2857265866
40 1 1 6.74481460356 16.3303419161 16.9903258631
41 1 1 12.0747271669 8.81943895752 26.6587337605
42 1 1 4.65643900395 42.7299604989 11.899825322
43 1 1 12.9241951401 9.73001418813 9.96893864083
44 1 1 8.47696203846 31.6372704728 23.2893222507
45 1 1 12.0798536079 8.3279078545 46.2699999494
46 1 1 9.53954694861 34.7506138542 38.5997899954
47 1 1 8.60302972322 22.2401503591 11.9892911674
48 1 1 19.2379859695 4.58100842044 23.8459348761
49 1 1 12.9606625871 31.3547730116 7.30910137627
50 1 1 10.3347568362 13.0736660594 35.6827781602
51 1 1 5.57796204893 28.010892096 45.7577869013
52 1 1 11.1099136575 11.5597377632 5.03097647885
53 1 1 16.6782393499 14.023234211 41.580290708
54 1 1 12.0948502755 11.0195068221 46.9206110391
55 1 1 10.0810678903 9.42530878816 22.7745951121
56 1 1 7.80272241751 15.485109654 7.92238034889
57 1 1 15.4368735251 45.9246386591 24.6478364468
58 1 1 11.7118613234 23.8101892685 4.47459985575
59 1 1 6.63778173153 42.8890723557 20.0903195536
60 1 1 9.65729296246 1.33857018061 19.4804641841
61 1 1 13.338915227 10.4560706577 15.4057119979
62 1 1 8.820341548 19.9705927499 36.1623045643
63 1 1 8.50336323429 29.7749027977 26.5542537071
64 1 1 8.55018120798 5.85307338673 11.6833022418
65 1 1 11.8771727749 47.3900858639 31.5791753028
66 1 1 11.5391739306 31.1581579583 41.3019910537
67 1 1 18.8478588401 8.94674098378 47.9814300526
68 1 1 18.1867519006 37.9218675036 40.1576518772
69 1 1 16.2347425361 38.5079407626 17.1610306289
70 1 1 14.4200514553 15.5086440049 26.5949546874
71 1 1 10.6614971186 6.22891515356 43.2032220578
72 1 1 19.2400268798 17.4403693861 12.3360502747
73 1 1 4.38084300206 16.5012554916 21.4214188632
74 1 1 7.34819552327 7.33181788796 47.9796881516
75 1 1 10.7950572101 10.8471010262 23.1194753707
76 1 1 11.019944441 43.3710073876 39.4880740025
77 1 1 6.47686127323 22.4639070523 22.6147469221
78 1 1 6.18919678993 5.50011651806 38.0298728431
79 1 1 11.7058989917 11.1850926955 17.778786015
80 1 1 12.3372522324 0.43918766807 28.7190868948
81 1 1 13.3803095468 34.9314284545 25.7800266886
82 1 1 16.1643265341 34.8135180363 12.1846755252
83 1 1 9.82340813437 44.8057157492 47.2500751317
84 1 1 9.46720348946 37.5237450359 37.4218093195
85 1 1 7.02367743549 37.605407631 12.9798392217
86 1 1 17.6133049445 21.4730493226 3.69430407198
87 1 1 4.98458982743 7.80252051792 30.8262443039
88 1 1 17.4402411909 3.98938305814 36.8955379048
89 1 1 4.72673391233 15.5730645398 15.9572080527
90 1 1 11.9462233169 1.84764629955 28.7184310027
91 1 1 17.9180577087 9.87339282823 41.329142341
92 1 1 13.4796681578 22.1209407383 9.6379216892
93 1 1 7.02676253723 37.2411117026 4.7780333499
94 1 1 14.8278752688 41.5678657715 14.6304434321
95 1 1 16.4657890499 22.2173765991 18.1004877217
96 1 1 13.1625787052 43.1171313458 43.2748732703
97 1 1 11.7340566289 0.899996327731 32.394307361
98 1 1 10.366011339 46.7164318311 22.4971867384
99 1 1 12.6811289204 41.068981266 6.04081202241
100 1 1 10.758906417 38.666588835 35.5431944051
101 1 1 11.6561954717 44.7722598958 9.8952627163
102 1 1 16.2791253283 47.0532785915 37.5159549824
103 1 1 11.2868002435 44.6106628054 45.2847020798
104 1 1 17.802295663 44.7599328779 5.8444010066
105 1 1 9.71875757803 42.2473618626 25.6255621345
106 1 1 11.6571732056 10.7603152838 47.9998581674
107 1 1 19.7681840449 24.9177810339 17.0730464322
108 1 1 14.1425456813 28.0423496425 46.0400197736
109 1 1 17.7992554215 9.30611352745 38.548743859
110 1 1 9.75202920763 17.9954952603 39.8825616638
111 1 1 3.9522452691 13.5202265569 36.8875245113
112 1 1 14.2859243225 46.0175705697 6.55075666446
113 1 1 4.65017901632 18.2041498445 22.1343354332
114 1 1 9.82599748262 6.70065273722 1.56731069078
115 1 1 7.47037232076 39.0195899547 37.6647846823
116 1 1 15.5624688167 21.1396726653 39.4475205385
117 1 1 16.8735163033 32.8116021324 44.4323743479
118 1 1 6.70899694607 29.5708529386 46.2992331538
119 1 1 13.95464584 7.75029944973 11.8915005408
120 1 1 15.9855359541 12.2496132023 32.9969715459
121 1 1 8.40184087634 10.3328310231 2.26210811714
122 1 1 12.3675991677 37.8761256372 44.7320318256
123 1 1 10.024818244 35.8114340285 34.1124204312
124 1 1 11.6031889116 42.7005861069 7.83484957748
125 1 1 15.9137297274 28.6565782551 40.6303029083
126 1 1 14.6377330012 13.0121440021 44.599342685
127 1 1 19.5216823433 23.3992185019 10.1360800557
128 1 1 5.79445368519 9.1223240835 25.1274426722
129 1 1 10.0673810776 47.5503651715 21.2698272086
130 1 1 12.7453056132 3.27261613684 42.8573722559
131 1 1 13.5975254252 41.4525118197 5.66355289252
132 1 1 19.6278978428 7.20425439184 29.492698223
133 1 1 7.802753809 17.9511413152 25.7280913202
134 1 1 13.4340635159 6.55116875131 47.024901731
135 1 1 5.49689786773 16.2434740445 29.8588276229
136 1 1 4.17161794931 18.6748982801 34.0458936118
137 1 1 14.5367996971 43.4367499687 15.631908041
138 1 1 12.2478977896 29.509962488 6.8976532353
139 1 1 15.1434673136 41.9009455176 16.6200663728
140 1 1 9.05279619066 41.0635709388 31.5728766541
141 1 1 10.6871186046 43.1716506465 37.1083343754
142 1 1 17.8462609148 41.0450542129 8.71778537919
143 1 1 5.35602926644 5.97593419251 35.3120698755
144 1 1 7.35655298056 34.2040741823 27.5673950959
145 1 1 14.1095128463 46.7240193413 4.96543722919
146 1 1 6.552334782 24.0070787859 13.5889199631
147 1 1 11.4857004988 29.813331648 30.9786143123
148 1 1 14.0487251606 0.318413428547 8.81654414692
149 1 1 15.8620487893 17.5454880866 36.0093338533
150 1 1 11.4787291322 3.89112692399 17.2096353544
151 1 1 11.2960079611 43.3169217014 46.5292898659
152 1 1 4.10541202407 17.6879041369 10.4086453913
153 1 1 17.5560154376 47.2649727784 33.9136909642
154 1 1 13.3501309317 40.0171247165 28.3024825622
155 1 1 14.4905483404 0.761165501343 21.0611586199
156 1 1 7.72931035501 14.1472031495 1.14989006895
157 1 1 8.24126648608 23.8471252082 46.6848464117
158 1 1 12.8383829478 18.825148123 14.6666979556
159 1 1 8.95803126567 7.85817710706 19.8058941219
160 1 1 10.6886887961 34.3431894253 4.78204569236
161 1 1 5.76480450626 22.4416530674 22.4779420717
162 1 1 15.753951212 22.8881909793 28.1598175137
163 1 1 15.7711155547 38.2097648508 46.2100108758
164 1 1 12.0330781961 23.00042325 31.4935399645
165 1 1 12.3243824821 46.5033988159 12.1279725552
166 1 1 16.528702457 40.1805290365 17.2943614644
167 1 1 5.84136872688 15.5701770154 17.1932219422
168 1 1 16.8589190864 23.5798516642 6.61185373052
169 1 1 10.8143224373 40.6376267087 43.1354971089
170 1 1 18.6583595288 13.5737358364 20.7895897585
171 1 1 18.1902431176 12.608879794 34.7439163693
172 1 1 19.6641723162 26.944796375 19.9265557862
173 1 1 14.0900498726 3.85785700368 22.5398652108
174 1 1 11.3980073628 6.76792460566 32.0585143025
175 1 1 14.8437191681 11.9472039531 7.85734858924
176 1 1 18.4864332635 45.290533146 3.06658282522
177 1 1 19.865013214 35.800471356 14.4693335763
178 1 1 15.0526616593 12.2190209301 16.6329541893
179 1 1 17.1703672191 27.9669817064 41.6879355518
180 1 1 14.5234169107 30.2094420777 34.0268413748
181 1 1 5.10246935742 47.0702208509 1.0958814017
182 1 1 16.3198172425 2.52543850995 34.6874996473
183 1 1 12.1664996231 31.4130469699 26.0302840261
184 1 1 15.2981100472 5.41778282327 0.473791480606
185 1 1 16.4439744821 34.0089713314 46.7790778575
186 1 1 4.83761531821 3.88745961448 29.5017386885
187 1 1 16.4254807029 19.7380924928 19.1261500798
188 1 1 18.0258638587 25.2156123334 39.2581994382
189 1 1 14.7194250387 25.8861544317 33.4323683456
190 1 1 12.9970499551 22.1231278574 28.0677553611
191 1 1 8.4873471076 0.438794717727 2.96361045508
192 1 1 4.28959424752 5.24102286811 33.2305575796
193 1 1 20.1003818697 43.3684187413 25.4821830932
194 1 1 4.65556106002 33.1320438609 47.2746077788
195 1 1 17.1769366928 33.1889060489 24.8413356301
196 1 1 10.1250714534 32.9810117443 21.3064131195
197 1 1 11.4349690482 5.52066866916 19.4513596827
198 1 1 6.92155246232 43.9797087964 16.840813345
199 1 1 6.66556976357 3.74873823089 37.8318572211
200 1 1 14.781932793 2.31765198988 22.5082070367
201 1 1 10.1732778862 30.6529776091 11.1373872583
202 1 1 5.93070895434 42.9334227106 4.51456035473
203 1 1 13.0541687991 14.6290951883 11.792815567
204 1 1 5.44090183331 40.9165490522 3.04382761158
205 1 1 16.6423700138 39.9471487977 44.8843226787
206 1 1 4.17747676705 12.3193995837 1.02857522331
207 1 1 16.3310540616 15.0143226467 22.6351423779
208 1 1 12.0958276953 45.4682218345 21.6645125555
209 1 1 14.5452741551 2.97451822447 4.7189240225
210 1 1 13.2339217671 18.938328294 33.6070906206
211 1 1 19.0557673786 12.8449300554 39.656535246
212 1 1 14.8407752587 42.2701288543 41.2852864797
213 1 1 20.0024725179 7.74654189751 16.6386448605
214 1 1 10.3801179582 19.6126277468 13.5924030243
215 1 1 4.84463796354 20.7375801355 25.5020517901
216 1 1 11.1970752336 43.8494707428 8.05248417666
217 1 1 4.67642003528 36.0262492687 45.1039954091
218 1 1 18.4216978424 14.3861680073 23.4756596226
219 1 1 17.873510323 13.398273231 34.9243363965
220 1 1 8.8138662089 38.5217882899 47.0881777716
221 1 1 8.51533216736 46.9940011041 44.2109919794
222 1 1 7.95310653645 8.54530787101 36.7055867597
223 1 1 8.38330026678 3.96254314424 17.025552469
224 1 1 4.13741694515 44.2283328773 3.99085057697
225 1 1 8.80889203306 30.1747707651 45.2950630471
226 1 1 10.4913274429 28.350164688 34.1359692591
227 1 1 3.97562492787 14.5440702132 0.21021380827
228 1 1 9.07486458126 17.7623316441 1.10099485578
229 1 1 10.9662959259 26.7323296868 11.010074274
230 1 1 18.1152776257 2.59187799873 37.2329426115
231 1 1 15.736659109 15.222155308 46.1470835072
232 1 1 10.404539456 13.7539199253 2.48144389801
233 1 1 7.14137563919 4.78632810949 35.7690907132
234 1 1 16.3729221708 47.8853919888 12.3063561277
235 1 1 19.0298514996 20.2558960206 3.36277973042
236 1 1 12.9008052868 28.858616286 1.44970238868
237 1 1 9.49193230241 39.8505227129 14.6687191987
238 1 1 13.5901184331 36.0779628568 46.4582108545
239 1 1 17.5619041738 9.61153346635 2.00556225825
240 1 1 14.3092936377 28.7768230261 31.9119949078
241 1 1 19.0693600377 29.9105764715 28.2391411024
242 1 1 6.97506398917 29.4521400731 28.3137152192
243 1 1 9.03599373714 11.7646443339 15.653202516
244 1 1 17.5714604696 16.5480985468 8.68788517563
245 1 1 18.3639431581 13.4027764579 3.64567975637
246 1 1 13.0384415749 18.4966569837 34.2655589767
247 1 1 18.9669613973 7.71037590178 46.3312265824
248 1 1 5.82866335721 43.8600150413 16.1812877599
249 1 1 13.2360274804 26.1709739029 25.6080759017
250 1 1 17.999772308 14.3453653879 10.171909118
251 1 1 6.40140704411 32.3089551029 14.4414599413
252 1 1 8.82890200564 16.3830866809 27.9439135983
253 1 1 7.97129428316 21.1013065431 31.4764935667
254 1 1 14.5308845377 34.0329564646 11.2577678628
255 1 1 15.7153919243 5.95925879677 35.739110161
256 1 1 15.9619145035 7.12566772422 41.6637327667
257 1 -1 31.0934460203 32.8029812864 0.229704671806
258 1 -1 36.0671760503 41.138527712 18.3447666266
259 1 -1 30.208076858 21.2494331711 7.19650513728
260 1 -1 42.9782262991 41.7633848592 14.9322319915
261 1 -1 43.0435935433 12.7555703918 1.59644810346
262 1 -1 40.5037218386 21.6550487606 34.5489803958
263 1 -1 37.3255528603 42.8366799504 19.0796514744
264 1 -1 34.8135977121 1.32441596435 1.53989089562
265 1 -1 36.5708003628 15.2880949837 44.2389744715
266 1 -1 42.3624664654 15.6008834846 15.8982059449
267 1 -1 30.0645042606 44.9229295755 39.7819447024
268 1 -1 36.8602941408 9.78459397146 18.4230304354
269 1 -1 40.871214114 46.755139828 3.08887221672
270 1 -1 35.7824870883 13.0236126177 0.20429860541
271 1 -1 43.1726338186 11.8361367963 25.1897913309
272 1 -1 42.5564376654 42.1789376917 47.9625021071
273 1 -1 42.5791315745 7.31771678346 3.93791421575
274 1 -1 39.6714041599 22.724485218 35.5845795777
275 1 -1 33.6304850112 46.3208612022 25.7002007533
276 1 -1 43.1141047413 43.7162290012 45.3746606083
277 1 -1 42.1479596378 13.6253295814 40.0446409033
278 1 -1 28.6714929438 0.328537012719 22.2631940932
279 1 -1 36.8750726982 33.9457973034 25.7174724737
280 1 -1 29.7747209958 28.428819948 24.288331412
281 1 -1 44.1115172122 44.8753213261 34.9746086088
282 1 -1 31.3546644657 36.9200246574 1.84959818716
283 1 -1 29.3827588125 25.764603046 40.044146466
284 1 -1 37.4436390549 6.57260463242 36.1369497222
285 1 -1 43.1868001341 33.5663129242 43.9445183769
286 1 -1 41.6801184285 21.0831749257 35.4750647643
287 1 -1 35.7701805452 16.4625656433 19.4055788272
288 1 -1 38.4666821415 17.2231260585 45.9549011922
289 1 -1 41.5451779831 21.8921028165 18.3236903983
290 1 -1 30.4972748991 32.059766196 0.557783802519
291 1 -1 39.0533356365 5.33420326117 11.2633561577
292 1 -1 41.0190609106 7.92104936999 25.9096233545
293 1 -1 40.1218880204 8.9030622999 39.0919265362
294 1 -1 31.2002655377 0.847012039659 1.21240644367
295 1 -1 33.3551272289 29.7863913308 14.1564054414
296 1 -1 30.177647894 25.3565681044 34.4316829309
297 1 -1 33.263298317 4.76531253264 28.0472233352
298 1 -1 28.5728427456 21.3552003805 42.1217729522
299 1 -1 38.7034217421 21.1551445158 9.26494708925
300 1 -1 31.2851954361 27.2799969638 37.3733829349
301 1 -1 33.3564428352 14.0021499205 31.6471543671
302 1 -1 32.4953058467 16.0318838262 6.103453045
303 1 -1 40.3907105272 6.61545465695 40.6212908796
304 1 -1 41.1527060837 42.9695325343 37.197589028
305 1 -1 38.8035542242 40.4883267257 20.7652284673
306 1 -1 43.6923998857 33.779968345 38.2451004978
307 1 -1 28.4844715313 29.1308855711 0.68362532391
308 1 -1 40.8270464437 9.58129057512 26.6285767163
309 1 -1 41.6027886004 2.54650955891 28.2782332524
310 1 -1 35.6812376834 39.7266098115 10.4773210333
311 1 -1 43.5398048536 43.0054728513 36.4892758223
312 1 -1 32.739486183 39.3955342638 19.7815403284
313 1 -1 35.8585273264 43.5675948058 3.90399992321
314 1 -1 43.2184220113 7.09183433188 13.8255732666
315 1 -1 42.2638836257 20.8751454126 42.3820232595
316 1 -1 40.0881267508 8.51387269538 7.28253020888
317 1 -1 38.620177351 11.6788889924 7.3458659989
318 1 -1 43.0022440184 25.7078443427 29.9269053473
319 1 -1 39.6001300197 21.8333002092 47.4225700758
320 1 -1 40.8255996155 16.1842428762 13.9031350293
321 1 -1 38.7622364354 20.9757516338 22.0552565939
322 1 -1 43.7329275383 28.7141096027 12.915554137
323 1 -1 36.359067661 45.4370160361 12.3708911648
324 1 -1 40.3274467014 25.0390969691 34.9823030503
325 1 -1 36.569062776 43.372441233 9.66826554489
326 1 -1 37.4475740498 26.4458266696 20.9809594443
327 1 -1 33.980327147 38.6620931457 4.26866243639
328 1 -1 28.2736613503 7.41835488325 14.8266323498
329 1 -1 43.2798516227 1.47433883505 14.2588366289
330 1 -1 34.6504314443 4.12939639616 46.8512252361
331 1 -1 28.4502298056 36.9806909942 15.0952474484
332 1 -1 43.7168399309 26.6116243545 40.7828522858
333 1 -1 29.6485593357 9.85986189306 39.8663438558
334 1 -1 36.2833671132 5.03449277922 37.5273756907
335 1 -1 40.8414693584 6.19987957268 15.5879198802
336 1 -1 36.8622285334 45.3228301867 34.1445975878
337 1 -1 38.9096910631 19.9910447405 22.3892790271
338 1 -1 38.4364332481 28.5356416877 37.1267149833
339 1 -1 35.2971759392 34.562290007 26.643615467
340 1 -1 30.5885377756 29.5445029764 44.6749551305
341 1 -1 30.144418576 32.3892736544 16.6145382941
342 1 -1 43.6057811374 20.906915295 7.32318378897
343 1 -1 37.9246917915 6.77727035919 8.00731752107
344 1 -1 36.590560132 17.3457255124 4.45830644052
345 1 -1 33.0167222586 44.9609042114 5.15279876477
346 1 -1 29.7541649009 35.4120379061 1.83705191396
347 1 -1 39.5294722298 14.1120674954 30.9067325146
348 1 -1 35.6766752059 34.1999878301 10.5222749691
349 1 -1 39.2500169835 36.8512562831 18.6398972529
350 1 -1 33.599089766 31.4345646684 15.6613715856
351 1 -1 34.8406827007 30.2773913577 18.7391734605
352 1 -1 38.3529253919 29.0707306024 3.05744253839
353 1 -1 40.1371183894 21.1763223423 43.4328761639
354 1 -1 42.7646660433 31.7442920766 18.1862821913
355 1 -1 41.7178912289 1.56691036882 14.0682808027
356 1 -1 30.6559683234 0.866378838087 14.042429569
357 1 -1 30.4258915958 36.0648877577 46.1695826145
358 1 -1 38.8828935327 31.199604543 44.0490475763
359 1 -1 32.0594365755 41.3391024302 38.0750151063
360 1 -1 29.9455879211 2.82538388507 4.42493636278
361 1 -1 38.7048853818 40.1888983627 6.17397347093
362 1 -1 42.2041807193 37.8030583981 43.2764123358
363 1 -1 31.2385198098 23.8538645525 34.7703758787
364 1 -1 35.5819890055 16.9921964499 25.0238670458
365 1 -1 32.7431026024 38.4510851993 22.7890590918
366 1 -1 30.0069512149 30.9106240449 9.48971400214
367 1 -1 41.2971075563 30.9793502185 4.21073790634
368 1 -1 29.3797025398 17.3781424413 8.55035155737
369 1 -1 37.5384317138 13.2010530723 1.81888950016
370 1 -1 35.6017952744 34.4745986265 28.5515276518
371 1 -1 39.126328827 21.3145096628 13.6616038171
372 1 -1 28.6809534883 11.5191706747 7.81156581848
373 1 -1 32.9229646772 28.6037412294 29.5715728934
374 1 -1 32.7004409718 47.0386339086 31.6485988999
375 1 -1 38.1991044737 39.052087249 14.6211000163
376 1 -1 37.9907589845 38.715625675 16.2335145914
377 1 -1 31.5404039266 7.17646687209 3.54220064376
378 1 -1 41.5076593456 32.2374960118 21.1217791869
379 1 -1 41.0820577323 20.54437417 4.12549885207
380 1 -1 43.5157402383 41.3743360857 38.095837977
381 1 -1 37.899627385 15.2718451889 16.7699237982
382 1 -1 28.1260782892 33.8895006551 5.16718975678
383 1 -1 30.5900360745 17.6250077834 35.7037348835
384 1 -1 34.3771263025 9.8795910556 23.4149620118
385 1 -1 31.1605102789 36.6463344819 1.00002352277
386 1 -1 43.5802400178 38.9678046911 23.4735180342
387 1 -1 31.7136780431 20.8433408987 45.1343494084
388 1 -1 33.5362540659 46.9840789324 10.7891958944
389 1 -1 40.2865562532 36.0882300862 22.4897769987
390 1 -1 42.7692250758 3.99638656364 27.6097166948
391 1 -1 36.7742526132 15.3344539075 41.6782062197
392 1 -1 32.3889989526 21.1153257492 35.684967253
393 1 -1 42.8609850066 24.0358135083 25.4612239906
394 1 -1 28.0393643849 10.8427309674 45.4000698756
395 1 -1 32.7313520734 20.9936597807 22.159268167
396 1 -1 38.0925139879 15.6535735768 41.6535928546
397 1 -1 40.666211972 6.01816824135 20.118535463
398 1 -1 41.2622441749 21.0785054781 28.4413761601
399 1 -1 33.0976463444 39.1061093887 23.5724979276
400 1 -1 37.6713994637 35.3688181337 13.0337585171
401 1 -1 31.9032251817 8.93078885428 7.0667224286
402 1 -1 33.8536440511 30.8778142348 43.4250705484
403 1 -1 39.9448722483 5.5996279151 4.04778251661
404 1 -1 32.3842724532 21.6555535229 12.4023994295
405 1 -1 35.1353985812 11.2933731976 28.8367785474
406 1 -1 32.0311621531 11.3411422203 27.6049125579
407 1 -1 27.8471739739 46.388267903 47.4086676252
408 1 -1 36.7355494143 33.7768896483 45.7496163184
409 1 -1 42.7964653566 40.2940448714 29.4594949626
410 1 -1 29.5806758019 8.28158758857 11.2263426847
411 1 -1 40.9757110155 30.0136093268 35.3921400761
412 1 -1 43.6776786321 22.2548679802 3.12989768004
413 1 -1 43.2461751373 17.1665887518 4.04481873428
414 1 -1 40.1205154672 43.5386842546 45.1541909785
415 1 -1 33.7048352973 16.0471238931 31.9854276217
416 1 -1 37.1690477655 38.6143706832 15.3231926216
417 1 -1 38.1924022717 30.9855986591 10.7271174586
418 1 -1 29.9786081143 8.56084329276 25.0734177732
419 1 -1 33.6860233553 23.9451935539 32.1450429565
420 1 -1 35.1255569419 44.0827605323 6.07308957201
421 1 -1 40.8894486685 17.365792614 8.95123658018
422 1 -1 44.0417365415 42.2544136951 8.44441109922
423 1 -1 35.1103112061 10.6730039874 36.3121356358
424 1 -1 40.3900862239 33.9356835468 18.2461802213
425 1 -1 40.627381665 38.7060600499 9.08772461872
426 1 -1 36.193457068 22.6244909868 42.5490835516
427 1 -1 35.7306319411 4.26755177868 26.249671207
428 1 -1 31.8413993824 43.6481658362 47.7611712071
429 1 -1 32.9437133199 12.2100534621 35.0785725446
430 1 -1 32.3280742637 23.144067762 10.9577320864
431 1 -1 30.7721327633 41.7533153317 19.403325619
432 1 -1 43.7743497509 19.6425798651 22.4828078889
433 1 -1 35.1484679999 25.6786241684 6.04585893016
434 1 -1 28.5213778878 21.1037466069 13.6534704162
435 1 -1 34.9532250513 5.43546772285 11.273280512
436 1 -1 34.9975889712 5.65778626848 11.2952177594
437 1 -1 38.6778817114 33.6322462701 24.6559032897
438 1 -1 35.8786855502 20.9907336835 5.19085165234
439 1 -1 35.5529791938 33.5807197937 42.0447553683
440 1 -1 31.4903448519 46.8362056582 4.41706058083
441 1 -1 34.4308692362 32.5920174348 29.0868302205
442 1 -1 34.3911947153 41.4142359968 10.0653869014
443 1 -1 33.529149567 23.5618946609 31.0466874958
444 1 -1 31.752969524 41.6622785641 13.9302405705
445 1 -1 35.758147745 29.4793741296 3.72615784902
446 1 -1 43.3221095086 38.5917821177 0.613286672313
447 1 -1 38.9258703439 41.4785723573 46.4984870802
448 1 -1 40.9111247385 45.8002700501 12.1322705853
449 1 -1 30.0519451598 3.4567184645 25.7647350235
450 1 -1 32.8825779259 21.7018265326 44.3748241169
451 1 -1 28.5816140946 47.3325792804 16.2035134199
452 1 -1 42.5916588083 40.679009652 39.0489904509
453 1 -1 29.4936704602 15.8032086136 30.2347895376
454 1 -1 31.1559617479 10.0916338493 4.06959016637
455 1 -1 41.867249111 2.70415915599 10.3427649586
456 1 -1 39.0957894732 23.2780606597 41.1439942308
457 1 -1 28.4559371896 33.6103263474 14.3001851727
458 1 -1 41.225122405 24.846212037 1.39343179243
459 1 -1 38.9937373309 5.5118693932 43.7716255999
460 1 -1 35.2088219323 31.1147150456 12.5341509483
461 1 -1 32.2023484432 30.7336019754 0.841661757949
462 1 -1 44.0035027351 19.286745371 1.60921213402
463 1 -1 43.195573429 23.8040637522 34.8800328719
464 1 -1 43.4024708406 12.9055809998 39.9146404509
465 1 -1 41.8057790695 4.78669585134 5.72886980348
466 1 -1 32.8625035797 43.7902942821 2.92535238362
467 1 -1 28.253898372 17.2424642953 43.2977895243
468 1 -1 33.0964122053 9.98682805328 46.9324621652
469 1 -1 30.3553184608 27.2674285921 16.7074413796
470 1 -1 32.0927961012 40.6906533549 9.89844775483
471 1 -1 29.8667451221 23.86635812 15.9713688192
472 1 -1 32.2274312288 15.4207533925 39.4705868742
473 1 -1 33.6916352679 45.4730027943 12.8903094273
474 1 -1 37.1017481156 37.6779675979 39.9928715332
475 1 -1 33.1404220369 43.4368801431 2.66552880233
476 1 -1 43.0335342159 44.021079863 34.6089672309
477 1 -1 36.2030580668 30.8181739626 10.7224744144
478 1 -1 35.3715476276 14.5586334407 3.80136721039
479 1 -1 31.3683526353 30.7493877143 37.0684556706
480 1 -1 34.0595598394 7.90667994396 6.84678991503
481 1 -1 31.4510650044 44.768296426 10.339930514
482 1 -1 38.968321602 19.1057088346 29.1407384929
483 1 -1 39.5459506664 39.6800402343 32.0743148418
484 1 -1 28.9927976701 38.1757014676 2.8652609917
485 1 -1 29.0707756663 22.0345166193 38.7302739527
486 1 -1 27.8459294783 22.5945229262 21.1869852046
487 1 -1 34.3592909772 19.8796421468 20.938480767
488 1 -1 42.1341426263 6.79682220137 22.574076327
489 1 -1 34.2401450709 8.07853524536 5.02238655481
490 1 -1 38.6125355232 25.1396495685 29.9708204922
491 1 -1 37.3701357602 9.87694560295 1.4055159721
492 1 -1 31.5782528686 38.6046915647 28.4912360345
493 1 -1 40.669794804 20.0253068763 1.75543600386
494 1 -1 33.1802503593 41.1240572726 1.0071706723
495 1 -1 36.4228271403 31.9938246744 45.5568178256
496 1 -1 39.696541514 36.3725062914 19.6069200216
497 1 -1 36.1274851065 2.26014638231 15.994671965
498 1 -1 43.6897447556 26.4724305027 45.153967147
499 1 -1 38.3424822315 37.3113435503 1.14585147731
500 1 -1 29.1726494724 45.5068152399 26.0538960795
501 1 -1 41.7752894519 25.6664741723 42.8321651935
502 1 -1 32.078375451 46.8691310241 15.4888980157
503 1 -1 31.0711238077 6.9475242101 17.2434738022
504 1 -1 35.9950016379 36.0901292888 14.1732651143
505 1 -1 32.2200303605 30.5451094278 20.64811249
506 1 -1 38.9132705363 12.2772075448 41.7069800033
507 1 -1 28.1048259759 39.2609836507 31.9238382668
508 1 -1 41.8838096631 8.17756758233 14.4822463532
509 1 -1 39.3012643389 10.6080308653 33.378854507
510 1 -1 37.1742659199 25.0711365412 2.00651436549
511 1 -1 37.643199734 31.9447847268 12.4782963462
512 1 -1 40.471985215 5.77947433091 20.7084256463
