LAMMPS charge data generated for ESP error-estimate validation

512 atoms
1 atom types

0.0 48 xlo xhi
0.0 48 ylo yhi
0.0 48 zlo zhi

Masses

1 1.0

Atoms # charge

1 1 1 6.31675521771 12.3397439848 3.89255108261
2 1 1 5.50529687209 31.4959083245 40.8755592313
3 1 1 16.2169561578 46.3774273655 15.5398589441
4 1 1 4.24630051981 12.7323260966 10.0958752147
5 1 1 9.03349979241 7.49458040319 22.1425840067
6 1 1 18.1416885783 29.1023862909 29.6437123423
7 1 1 18.2273660043 41.7747576655 1.63597623411
8 1 1 8.53452956369 42.6622944757 10.8998759562
9 1 1 16.2526242334 41.461278029 36.7569032796
10 1 1 16.7277826975 36.7174545489 43.7680534317
11 1 1 4.71329688722 13.8766440638 24.0581543916
12 1 1 10.9594886236 6.53819979596 40.221435174
13 1 1 5.28966406417 9.07770435101 36.6676750345
14 1 1 13.7335180278 38.4239310532 16.8449135208
15 1 1 7.69843676116 23.9105518528 28.6219021552
16 1 1 17.876443451 0.959956200356 21.5316068675
17 1 1 11.7971604539 21.4566260925 36.5721418574
18 1 1 5.78055445184 21.3857586875 13.7270817544
19 1 1 16.1468041252 16.6487884911 10.8200507957
20 1 1 18.0888962697 36.6086081534 18.3545105549
21 1 1 13.3340127402 18.6830912806 27.4217231256
22 1 1 15.2215158188 25.7555591878 11.086832828
23 1 1 9.94925184382 17.0009854184 1.58635545906
24 1 1 4.80966833952 17.7242254241 37.3111774513
25 1 1 12.2910322401 7.53200092251 0.534835096309
26 1 1 18.1695147793 15.6276193288 3.77643238565
27 1 1 9.89610870449 12.4243102319 24.6017750232
28 1 1 11.6704815779 15.2614449224 2.92102379325
29 1 1 16.6571319944 22.842310511 5.96161512535
30 1 1 9.776330338 40.7447326627 8.67558987707
31 1 1 10.0631934412 18.3206703478 20.0576553704
32 1 1 9.70231605661 41.2049896947 0.709914732519
33 1 1 12.7265954593 12.6475576954 10.9032477814
34 1 1 8.36282450507 24.269790632 1.23692532086
35 1 1 17.5310152124 44.2199230355 22.2701881178
36 1 1 10.905128617 36.7628752995 9.90664519628
37 1 1 11.6182686495 37.4213076742 31.2914013085
38 1 1 5.49628597203 10.932123638 8.36998795718
39 1 1 18.7713232754 19.9954090835 38.6523168775
40 1 1 5.49846911991 44.2490368941 18.3782155862
41 1 1 11.0387495799 34.2503254399 31.0764462925
42 1 1 9.75811889101 32.3839478616 20.6335783901
43 1 1 16.4470982226 6.36793887735 39.814533145
44 1 1 11.7755927843 38.7948650112 1.73918410911
45 1 1 9.99269923627 2.2356481897 17.864355812
46 1 1 13.7459870113 42.0188929958 20.7302623189
47 1 1 14.69243637 44.9880298131 38.9128799395
48 1 1 4.27043460727 32.7810954626 14.9436812386
49 1 1 12.5132023064 41.4826211116 4.68819569375
50 1 1 12.3033531266 38.3734540665 6.01083886565
51 1 1 9.55415943594 27.2868159985 12.3976070308
52 1 1 20.0089785247 40.7082245904 32.9467073693
53 1 1 4.87737832726 34.4907091775 39.0818843286
54 1 1 4.014325923 11.8321803684 41.5302221722
55 1 1 7.79107629858 47.8314922848 39.0238801013
56 1 1 5.63627585778 16.7143257685 15.701788948
57 1 1 14.3838685042 31.421577815 27.988363325
58 1 1 4.32322369534 47.2520743294 46.3668867918
59 1 1 6.51165678919 38.0804329331 8.11056877477
60 1 1 17.9756850313 36.2503279829 0.971726580461
61 1 1 5.31163229139 9.19826875613 1.9851232784
62 1 1 11.8593761103 45.4871072619 1.58861698302
63 1 1 5.83850513709 10.8438374846 47.3974820028
64 1 1 14.505154144 29.531959618 0.252484139133
65 1 1 11.8502340949 14.9120019065 22.0150913001
66 1 1 6.1169090142 41.0266153973 30.8904835118
67 1 1 7.47929808616 11.0906884965 29.3365464924
68 1 1 16.6656724139 13.1847350941 9.29647854891
69 1 1 12.1785407965 15.0859733342 25.3038742562
70 1 1 3.94161656389 18.0138924125 28.0875445681
71 1 1 10.5811150391 38.587438294 34.9444210755
72 1 1 4.26685815325 24.3149204557 18.1221536698
73 1 1 15.9413507186 36.2575367188 4.33726956077
74 1 1 10.1745612415 27.821758687 21.2590400773
75 1 1 18.3238072226 26.0285628641 34.4369502288
76 1 1 18.1824878841 34.320353276 10.5666471376
77 1 1 10.7614284348 6.73151025895 10.9049845921
78 1 1 13.0447643501 35.8164308807 42.9922333858
79 1 1 16.2976214717 13.4093586215 27.8699259996
80 1 1 13.6800277569 0.328044092914 12.7054965075
81 1 1 12.1351491573 30.5104073943 25.5838480606
82 1 1 13.6327694392 13.5527071715 0.485078266356
83 1 1 10.4763530045 17.7968898618 7.25641753248
84 1 1 9.3418337299 34.3850521925 7.85362856944
85 1 1 6.68750995551 13.7671952525 3.83234107381
86 1 1 13.6324660426 28.9665621191 47.8036222068
87 1 1 10.345982518 47.3681296349 16.2535534187
88 1 1 7.31042810121 16.2396310351 38.3899358974
89 1 1 16.1721415651 33.1774896662 24.6103252636
90 1 1 4.82833004637 11.4863506037 31.7448029537
91 1 1 10.784978256 7.94334123556 37.3267069757
92 1 1 13.2472065219 32.3642218908 33.3556159171
93 1 1 13.0434647566 14.1541238192 37.575796869
94 1 1 18.9099349847 24.2343844289 19.0244401486
95 1 1 10.7356182238 32.6733615536 46.942479692
96 1 1 15.0687685756 29.977085986 5.61297658863
97 1 1 6.73786986161 11.5678799081 34.7396704258
98 1 1 16.7645442434 38.6748321291 19.2519368548
99 1 1 18.3408662274 33.8703147426 31.1581010142
100 1 1 16.1847202864 38.2264282232 2.73232053504
101 1 1 4.55190943973 15.6285009778 26.69531465
102 1 1 9.41101740679 23.0849382074 22.9494496861
103 1 1 19.1969422458 42.5449061364 33.0355922094
104 1 1 12.5207605665 19.8942027357 30.2788259008
105 1 1 13.3777570097 1.18589062845 30.4682513543
106 1 1 10.3883547321 35.9795077514 4.53159302838
107 1 1 8.18681411575 14.3495837696 17.5830881465
108 1 1 19.1597573224 29.4292036603 17.0835834726
109 1 1 16.3109460449 11.9930036218 45.1676723724
110 1 1 10.164115948 37.2104932191 30.1430345094
111 1 1 10.8632989468 17.4780873549 5.0900376525
112 1 1 7.86564775411 44.4266324069 34.6892577015
113 1 1 4.52422125892 22.1655423999 43.8621997242
114 1 1 12.8241373813 25.6744989086 26.7122497567
115 1 1 3.91974578006 19.7269292884 11.8019973053
116 1 1 5.0466119622 29.8802370673 6.22259707557
117 1 1 14.0090276819 24.4223990334 23.6422671202
118 1 1 9.68970978164 31.0306032608 17.8629382699
119 1 1 14.7321817998 44.0793691886 23.6228126508
120 1 1 12.6193689802 4.84629640154 24.0541344002
121 1 1 4.14488993112 45.7122618892 3.16601319197
122 1 1 18.3706110349 9.08588312398 29.240052911
123 1 1 8.79037519455 6.7310220804 31.845438164
124 1 1 4.97529641849 13.4420443912 29.0572326961
125 1 1 10.3815393259 14.3752810812 40.9863851347
126 1 1 5.45233263582 16.3813432228 10.6115851647
127 1 1 15.9128127186 33.1912053391 11.3001146063
128 1 1 15.2608806261 35.6134373024 27.3276962904
129 1 1 19.98006618 19.2322997982 0.0844719071098
130 1 1 17.6250761876 18.0627082598 33.6021420367
131 1 1 12.8698131076 28.9741622777 31.1186092878
132 1 1 7.2446493353 20.687575522 25.4032251289
133 1 1 16.1426991141 28.638470443 14.4799337143
134 1 1 19.1468374277 39.5268126267 2.00163871362
135 1 1 15.9065985417 16.8903401693 15.133913307
136 1 1 8.10180727942 46.8638031522 11.1737072547
137 1 1 9.31367478427 9.50482365095 8.14416231296
138 1 1 13.0550667546 42.3387903539 29.281842049
139 1 1 16.3772718896 23.5020362722 15.4484479258
140 1 1 14.7935172969 11.5475006668 36.6370952199
141 1 1 4.49266894764 16.5017602715 39.6858556437
142 1 1 18.5076147285 20.0239000069 15.078205998
143 1 1 11.5065841006 4.5189906016 0.747764534429
144 1 1 15.9512907138 5.81704298752 33.59579512
145 1 1 19.4035876755 32.3337045806 7.19594160123
146 1 1 6.8048000876 25.9902850521 40.6110849545
147 1 1 14.5168244848 8.37539805804 27.1235490683
148 1 1 19.4220442016 36.5364225438 6.6589770494
149 1 1 16.0756369519 12.2975807518 5.98702602988
150 1 1 14.2815170409 18.1688158021 15.6231374139
151 1 1 8.45135133923 3.24832004196 11.2679556988
152 1 1 15.3356102916 36.3397185636 11.2504821336
153 1 1 5.49606352268 37.2784988043 5.32252133284
154 1 1 11.2292051759 14.290042365 30.1360814726
155 1 1 7.54397948784 31.1952843126 18.2954301965
156 1 1 19.1630009138 23.9950462897 1.22150615632
157 1 1 18.2288013651 37.8608108319 11.5921370886
158 1 1 19.7541101836 15.7152348307 19.2131537518
159 1 1 13.2000937603 34.3334111684 10.6229813921
160 1 1 19.7484026309 28.3460447828 19.5740065255
161 1 1 5.62898398741 31.882147385 12.3013936572
162 1 1 12.6449236341 24.9051736974 13.1751274269
163 1 1 5.89689989812 14.3922570738 45.6253427399
164 1 1 16.3337415633 13.345033316 40.510984425
165 1 1 13.1237938532 30.884396858 25.5542541422
166 1 1 13.6182060737 8.43788502603 29.9577434514
167 1 1 6.63517044402 39.0511945132 20.8102646341
168 1 1 14.6283630833 30.5259016748 2.39881107017
169 1 1 6.24338609538 16.5934854518 8.80271893828
170 1 1 10.3472260195 6.88406582827 1.64945404432
171 1 1 6.43030651467 18.4505838311 42.24468004
172 1 1 15.3913180274 37.9879823623 27.472160514
173 1 1 19.6620020639 29.8541067194 42.5004272901
174 1 1 16.9392868115 41.9489012752 45.5244329656
175 1 1 12.0955037043 28.7891597831 25.2781429454
176 1 1 14.8807988392 44.151728947 3.4770925003
177 1 1 4.89752380645 25.2098450609 3.89711312274
178 1 1 18.2878457197 7.82260270139 33.469223292
179 1 1 11.6773613982 17.0843666361 42.9442856405
180 1 1 19.3442452523 27.024673323 23.5894022142
181 1 1 19.9928891011 20.9982150244 6.63426868913
182 1 1 10.1136704262 17.8694001443 16.0566494411
183 1 1 5.76650452088 25.2151359259 35.4348567091
184 1 1 18.7833399096 46.582402059 8.23156664421
185 1 1 8.80943037863 15.4948108101 26.9185950104
186 1 1 18.2744838906 6.06694543562 7.25479645177
187 1 1 16.2638056789 5.98363643466 6.32920022073
188 1 1 17.973795213 46.9642188749 42.1942504301
189 1 1 16.4402881616 42.7492720246 5.7107132297
190 1 1 13.6907465048 35.8056144374 33.9882767188
191 1 1 11.1145886173 23.6563239756 26.0246735845
192 1 1 6.98807837372 47.6269200275 24.3817654578
193 1 1 13.5115242558 4.17270387704 39.9240053544
194 1 1 10.9081472272 26.2068415916 31.7874929837
195 1 1 4.78877302486 17.5957971819 23.8031164622
196 1 1 18.8933109937 19.903811111 17.7570192958
197 1 1 6.35103992686 2.93090280286 13.9536848217
198 1 1 6.28181431283 44.8670568185 21.0863329056
199 1 1 17.1316829915 36.0398676388 44.6869704075
200 1 1 12.0099434588 18.832100183 3.49120997834
201 1 1 18.4934360452 33.06982562 18.8138916872
202 1 1 19.84387931 42.5795311409 3.89934218449
203 1 1 5.04356779709 18.581463896 38.9021131429
204 1 1 5.58330119126 14.5347663628 41.7428267965
205 1 1 19.4519602424 5.79960264735 37.6382643455
206 1 1 17.2327950772 19.6813616721 2.86036320517
207 1 1 9.41134544086 44.623181001 24.1584038081
208 1 1 10.5106600415 9.65662726522 33.3054057284
209 1 1 8.90775804069 47.1311569123 45.5357277418
210 1 1 18.4379648853 9.83517926926 24.2036616588
211 1 1 6.03645610127 27.1346959913 10.0013700521
212 1 1 9.95044462456 41.6116215197 31.0986305513
213 1 1 16.995797267 13.5638155421 30.7420116633
214 1 1 8.40868497857 20.7938047194 15.9066563586
215 1 1 7.27672909156 1.23045332877 35.5935573871
216 1 1 14.7279325203 28.530151956 0.0036241403213
217 1 1 19.1475437589 28.942904054 3.08800687795
218 1 1 9.3061125159 16.602699958 17.7240544548
219 1 1 10.9823441441 26.7444636896 30.3891571256
220 1 1 8.95122710947 39.5912943139 8.80943552634
221 1 1 10.6062644704 44.739817714 35.0898373785
222 1 1 20.1410483035 12.8519305815 33.1478157691
223 1 1 4.70834578457 35.8534843817 11.3108500057
224 1 1 9.24192648373 4.55806242519 1.54566350683
225 1 1 11.5291619502 29.2549248776 36.3766056726
226 1 1 8.04478897245 9.24792662534 42.3581776645
227 1 1 17.1795343033 15.7179181849 34.5722240188
228 1 1 6.7138105468 18.6431994491 35.9975831552
229 1 1 14.7724366713 21.0649622939 7.09961449074
230 1 1 4.59485929674 27.2410476372 25.545660347
231 1 1 13.6511881511 15.7223453253 34.8115959209
232 1 1 9.82259107533 45.4045944233 13.8778565211
233 1 1 5.66377445616 21.1966141858 34.0134761197
234 1 1 5.45896055765 35.0653623342 8.21071222563
235 1 1 8.74144798452 6.81393896164 36.4519554001
236 1 1 7.42209412125 47.3712155209 22.3035671006
237 1 1 11.3397565614 3.25590975565 19.4573076196
238 1 1 12.0795225433 24.6471272547 14.1889215643
239 1 1 18.6928592155 46.4859345483 9.88262371481
240 1 1 17.49860739 18.5554183353 17.6713403625
241 1 1 11.3609530794 39.8543197163 17.2516571901
242 1 1 17.2082432021 14.2518739388 4.03831728731
243 1 1 7.70003020146 24.8558789314 35.1600673852
244 1 1 19.2605620787 33.141268242 7.80169759072
245 1 1 7.78197976762 43.6465654196 13.1625029585
246 1 1 15.8169258136 35.0530387803 47.9901545219
247 1 1 16.1800526001 32.5739439562 3.24993024961
248 1 1 5.67450077018 30.1786626579 12.6957545106
249 1 1 7.595384719 4.18548357098 23.9529811755
250 1 1 15.674222207 0.341355055241 14.7497866567
251 1 1 12.5730842206 21.3722329986 5.96425419732
252 1 1 18.6912570664 16.8905644235 43.7702855739
253 1 1 4.62919962811 44.0588880069 6.19549593177
254 1 1 20.0603282532 7.86122237551 37.2552844506
255 1 1 10.8529978385 33.1172464788 26.0699538302
256 1 1 4.67715894629 20.0166982367 27.3045252312
257 1 -1 28.6687421501 0.00277944110711 28.2664810905
258 1 -1 40.5068160327 16.3303085805 47.17483485
259 1 -1 36.8371418692 32.7839895867 18.5898537596
260 1 -1 37.3744912837 28.7002551448 11.2000777197
261 1 -1 35.3364181891 33.8484355958 36.969416038
262 1 -1 38.6754932921 3.67223088283 30.668184642
263 1 -1 32.6845124791 7.59174966109 8.55128113218
264 1 -1 34.1939078817 6.80172457852 30.1138268136
265 1 -1 37.7507293294 12.7322542354 26.4885978091
266 1 -1 28.9071378782 19.1181430121 1.01537063493
267 1 -1 38.4696598011 5.06110639013 24.4522791875
268 1 -1 30.4629764874 14.5533732617 32.3513697793
269 1 -1 31.1145617414 36.8317353187 22.5091485441
270 1 -1 29.1029646038 3.52997766825 38.5349681301
271 1 -1 40.7371930847 12.9312672935 19.2061269738
272 1 -1 29.4290792788 29.337908165 20.347149405
273 1 -1 42.0270478504 24.7548782503 44.6791898567
274 1 -1 36.1581270131 43.4600908354 17.6614579238
275 1 -1 39.1649557001 37.86402448 24.4546619147
276 1 -1 34.0362437811 37.9645176781 13.7124155333
277 1 -1 41.3038370262 25.5811660375 6.41140598517
278 1 -1 43.2224018889 44.5035317022 17.0906225888
279 1 -1 39.572593817 33.6226627893 4.521255776
280 1 -1 39.9845167695 41.6438153153 20.1870664755
281 1 -1 38.8303716565 46.5440486062 0.596927622759
282 1 -1 28.8086350918 36.1946950079 31.999612447
283 1 -1 36.6274534226 16.5220473007 39.6675063248
284 1 -1 42.485508381 26.6076285206 47.5123481071
285 1 -1 42.3480520942 0.282675133448 3.42186485296
286 1 -1 43.785064369 29.3669578121 13.2540496272
287 1 -1 28.1237732901 2.13323046788 8.4363285252
288 1 -1 32.1172008063 25.5297677288 10.9638075496
289 1 -1 28.8959301196 42.2234734815 21.3338801321
290 1 -1 34.3174735236 11.9078304122 39.8884930039
291 1 -1 39.9340054389 10.6674693401 38.7939684584
292 1 -1 37.4025459024 10.8532951419 0.593999768502
293 1 -1 41.2861509521 3.37114941117 3.48575747738
294 1 -1 30.471103038 35.0389998607 29.7908155371
295 1 -1 33.9572977933 30.7199069025 46.8127228782
296 1 -1 31.7580852395 9.86997708997 7.16105441956
297 1 -1 42.6573970143 10.9782099318 1.7561400021
298 1 -1 33.3201538254 11.7687134509 29.6358053787
299 1 -1 29.9414585055 21.0283979155 39.6301424847
300 1 -1 32.6021163075 30.1758573087 19.6853400228
301 1 -1 43.8278493079 33.0533978262 30.9008310834
302 1 -1 36.5601752689 9.81617909841 31.5165695962
303 1 -1 43.0362843089 10.8225416512 0.0462273457118
304 1 -1 38.1694203991 18.7353250578 34.4450723421
305 1 -1 43.5569566044 21.0505650756 1.84349731579
306 1 -1 42.7869050588 36.8650191699 33.9014687645
307 1 -1 34.9988359847 33.9218990511 46.2694634381
308 1 -1 30.5159217248 6.43654548445 10.8204354585
309 1 -1 36.6289089701 44.1068064344 3.59813956041
310 1 -1 33.1392552518 12.8277626891 42.8725948848
311 1 -1 35.8241120571 16.8530995394 30.8991611251
312 1 -1 43.2439488807 15.7131427752 18.8726896577
313 1 -1 28.4777274623 7.90134220626 46.5130572108
314 1 -1 42.6008785119 36.132509918 36.5628087197
315 1 -1 33.9359918735 45.6729561176 32.1157399307
316 1 -1 32.0296116819 6.6911958854 36.2811783114
317 1 -1 36.6541698475 26.0552170987 28.3464184905
318 1 -1 43.7947715793 24.0457798473 31.9673702586
319 1 -1 31.9051623742 20.7203627799 5.46953085916
320 1 -1 40.4927479056 16.8343062945 14.6606748852
321 1 -1 36.4476414457 26.5203872625 45.1194506522
322 1 -1 31.4329511738 39.9867869543 28.0696003934
323 1 -1 35.5398280281 16.8001253224 19.8284938438
324 1 -1 43.3365741516 14.0041559611 11.3215024782
325 1 -1 29.0259523118 42.2974501223 46.9291504836
326 1 -1 36.7539538196 15.5520709485 0.515128122619
327 1 -1 32.272734277 36.2448750221 39.4037357277
328 1 -1 29.4538479387 36.1651511486 35.3254849801
329 1 -1 40.1420371154 9.12222053012 13.7699278784
330 1 -1 34.6832131649 43.3523958422 45.7407335738
331 1 -1 38.3708409905 17.1056987868 32.4173833238
332 1 -1 42.8625739556 19.3288346576 35.866642424
333 1 -1 33.6967848433 25.293819526 16.4465106669
334 1 -1 42.1334154839 4.99615186249 1.14874145985
335 1 -1 40.9329795561 20.0689672169 1.07618616523
336 1 -1 32.6473580076 43.5665914719 21.8739762862
337 1 -1 33.6667825096 23.1543546676 17.1721320042
338 1 -1 28.5248456997 43.4842642367 18.8061725878
339 1 -1 32.9668391388 37.9728776685 17.7005083126
340 1 -1 34.9090349774 10.1218852977 37.315520038
341 1 -1 29.9854648524 35.7016418207 19.4608370648
342 1 -1 36.2914482867 42.2184585968 37.6397795517
343 1 -1 31.2611194301 21.3587655278 23.4408347743
344 1 -1 37.5944302534 8.85509226676 24.7731122992
345 1 -1 40.3790458847 1.34098959936 41.6221853792
346 1 -1 40.1529785793 43.1849384575 27.1574267314
347 1 -1 36.660472464 15.9659424528 16.4176274829
348 1 -1 36.9578691662 7.02305110834 5.63573646524
349 1 -1 31.4938173033 18.2060846781 9.92278195976
350 1 -1 42.7341659846 29.6629094023 23.9589496974
351 1 -1 38.1358068863 33.6127752463 46.3884973567
352 1 -1 40.9615250688 41.3197099413 7.01269337179
353 1 -1 39.0941203799 15.6154315909 15.0195388705
354 1 -1 44.0541618792 24.8191320435 5.31495566072
355 1 -1 40.1605487199 12.0323417286 7.66079911262
356 1 -1 29.2678649048 12.1241317372 26.1774190865
357 1 -1 35.648389076 21.8494696249 46.310958948
358 1 -1 30.9076477224 27.6973046998 10.6123420537
359 1 -1 39.2117516608 41.2777922383 29.9725185895
360 1 -1 40.8373939489 17.6883097475 20.9094700551
361 1 -1 42.1208001609 15.6680615073 39.858626793
362 1 -1 37.0286151295 3.96479701855 3.7568107092
363 1 -1 35.9659300255 22.7209786534 42.1229267279
364 1 -1 36.1457970507 13.8202294841 20.5289984923
365 1 -1 36.7916277978 26.260020383 41.5291907237
366 1 -1 31.8244388912 37.2232138256 12.0817058781
367 1 -1 38.8649884141 39.0945184315 25.7630669657
368 1 -1 33.7451547742 6.93278337514 8.50087383369
369 1 -1 30.2887895187 37.7114429948 7.6004052712
370 1 -1 37.3966548235 25.7443925388 0.084101991388
371 1 -1 28.284513789 0.405372621515 27.0795376485
372 1 -1 28.6413626549 2.67578269519 2.23686602459
373 1 -1 39.7124582923 37.5931008433 15.1100689449
374 1 -1 39.9249645455 35.3082762729 29.4360381693
375 1 -1 42.0398916029 40.3866443542 33.3947228766
376 1 -1 42.4398977704 4.41412531978 42.4507694562
377 1 -1 33.9245130012 1.85444227729 35.6931674914
378 1 -1 36.7408342157 9.31454160084 22.5097352996
379 1 -1 31.9340536451 10.1744790724 41.5417909713
380 1 -1 34.8748301652 11.9639319024 45.9265705312
381 1 -1 32.6020550953 8.42042752786 28.2196086283
382 1 -1 33.6292659755 31.8829036141 37.0615788981
383 1 -1 31.90305153 25.0841153464 27.8198250237
384 1 -1 31.2939863955 17.5508466304 18.8044011117
385 1 -1 39.5842717499 33.7444542192 27.574481061
386 1 -1 44.1214747418 38.0733149422 19.9510924273
387 1 -1 31.4521244227 8.98576271344 8.34890516223
388 1 -1 33.8538070364 44.6960337792 3.38291261909
389 1 -1 31.5348511341 39.6752344176 31.303367532
390 1 -1 35.4330886629 47.6629331505 21.8506162184
391 1 -1 30.6644751233 33.0283159944 31.6081238096
392 1 -1 31.9512678022 42.9877302292 24.6218393345
393 1 -1 28.1512410883 5.4816425191 31.035907391
394 1 -1 34.776965417 28.6258754993 27.0612425764
395 1 -1 35.0812352535 3.77654388184 37.6051675954
396 1 -1 41.3663718831 35.5609962875 29.2241497357
397 1 -1 32.0117290813 8.3398199771 32.2261870498
398 1 -1 34.1579791438 47.5448796405 11.8047110181
399 1 -1 28.0067811166 39.4207363497 36.9714149215
400 1 -1 35.218039519 41.557970248 13.0270574309
401 1 -1 33.3831215692 35.3234976641 46.443154663
402 1 -1 41.1299371256 32.3168901155 8.05427672847
403 1 -1 32.9425522009 27.2471626924 45.2783250398
404 1 -1 35.1707791723 13.0220189005 19.6056936334
405 1 -1 34.3452727922 24.2652603419 28.3728965468
406 1 -1 43.8470954584 19.6322396532 10.281125455
407 1 -1 44.0620907187 26.0348496949 28.9294666632
408 1 -1 38.3136495784 38.6283569538 12.6551375408
409 1 -1 42.3400577951 44.5051489089 39.9658165851
410 1 -1 34.0430293745 13.7230583989 45.2042176156
411 1 -1 40.930876186 47.7932345915 15.5562332135
412 1 -1 40.4178878862 15.1445637361 24.7557620959
413 1 -1 41.8724088201 24.4941285451 23.9257910264
414 1 -1 29.114906458 12.44709102 14.2909645018
415 1 -1 28.4991412821 24.2255334263 13.9184533274
416 1 -1 30.428724353 41.1155470147 25.4178546875
417 1 -1 28.3022343435 33.5800478985 14.0623548912
418 1 -1 36.8475142737 7.43659298466 9.3437916808
419 1 -1 40.7559212536 3.7842980748 3.18069297003
420 1 -1 37.6152149089 35.4039073686 28.2328135183
421 1 -1 33.2996917679 17.8891256823 19.0139502874
422 1 -1 37.7336434712 21.8367766262 44.98017875
423 1 -1 27.8563110003 40.2150151345 3.92218324883
424 1 -1 33.0407349403 35.304133368 33.6225216615
425 1 -1 30.829813851 1.81857410882 20.2349798452
426 1 -1 42.3194922738 0.161677962164 41.7188820838
427 1 -1 34.0814661907 27.8405405893 28.915989047
428 1 -1 38.3198823645 46.0526077709 47.5137040986
429 1 -1 31.0256831132 0.471790067825 26.6283574059
430 1 -1 34.2763367658 14.5634982695 38.8963447374
431 1 -1 31.2236086308 39.2736830798 20.0590757707
432 1 -1 41.1192627989 11.5918816744 10.7686222181
433 1 -1 35.8382966671 5.11348463659 44.7962036404
434 1 -1 43.3504190633 24.5978798261 45.66353317
435 1 -1 43.3138589848 27.5795296467 25.7770287128
436 1 -1 36.7594780092 37.1503831218 43.6467841397
437 1 -1 34.7796909271 31.1527353086 45.2109704232
438 1 -1 43.9507369502 24.902106788 35.9296513371
439 1 -1 38.5477046754 4.23715863631 28.0174270592
440 1 -1 40.3335316921 0.502670906312 15.9598140799
441 1 -1 33.0861913542 12.1995409457 40.5757814114
442 1 -1 37.0134442987 1.25961563327 19.5371395886
443 1 -1 35.5656361133 47.6251592769 33.6368085303
444 1 -1 36.4485995403 12.1310234321 5.2378469434
445 1 -1 41.1539068867 25.2926106306 33.4730109444
446 1 -1 30.5372160823 18.4449060445 13.2472095518
447 1 -1 32.4327396421 38.6294506574 14.2444356851
448 1 -1 39.2627662328 1.59544464711 11.6812447315
449 1 -1 28.090249359 42.7460859478 46.3618277021
450 1 -1 38.4857401149 15.3851084875 30.6750565709
451 1 -1 35.0919305365 35.8765855801 22.6740462385
452 1 -1 29.7690398084 1.39723212209 17.7764909936
453 1 -1 43.0887072599 27.1650107284 42.0121281457
454 1 -1 31.6836727698 10.7260848082 21.1152075716
455 1 -1 29.2953215024 42.8112792263 46.3188633432
456 1 -1 39.2517160291 20.3050183898 22.0205396132
457 1 -1 35.7634497712 3.36911133586 26.2213950334
458 1 -1 34.9352228638 11.7378458348 5.97392136057
459 1 -1 31.0173566695 15.8109724077 25.7366876621
460 1 -1 32.2950478922 37.5953175824 0.0704198942131
461 1 -1 28.3340734713 1.3872985655 24.6594604363
462 1 -1 42.2487048005 30.5792967935 20.405513128
463 1 -1 35.680206293 39.4426926228 26.7083293576
464 1 -1 43.2278996916 43.0118714525 5.62384065544
465 1 -1 42.9761059012 44.5818621918 10.9744276333
466 1 -1 42.6069811232 33.4642706824 31.1602754799
467 1 -1 28.7681400242 8.13722630123 37.3077625969
468 1 -1 33.9165809313 27.8473236051 44.2054512473
469 1 -1 43.3833524994 6.84561225646 12.4420985322
470 1 -1 41.3596521787 25.8426510432 22.5811187334
471 1 -1 38.2225562077 44.6707908175 11.4626031472
472 1 -1 28.4105962536 3.7904779265 9.90936040745
473 1 -1 32.4692348493 24.6394773939 27.2989531829
474 1 -1 43.0539484234 37.0806741131 39.1657160209
475 1 -1 30.828984953 29.1322572495 8.96641884503
476 1 -1 37.7328182143 23.8082987129 23.993634243
477 1 -1 33.1362355989 27.8004460667 31.0664826886
478 1 -1 44.0242111836 5.85376139427 38.6691756283
479 1 -1 30.4654688042 15.3516455477 43.8282420846
480 1 -1 32.0933519017 13.3265406126 38.8821930959
481 1 -1 41.1659356021 29.7141985412 25.4390403906
482 1 -1 36.6010827226 23.5888196324 25.421453572
483 1 -1 31.9936081609 28.4905841305 41.5352559006
484 1 -1 36.5456902475 5.54091400115 14.8694441242
485 1 -1 37.1191603253 44.6733733899 36.9568775245
486 1 -1 42.7772806444 37.8567511638 41.2827782361
487 1 -1 30.8408060918 42.5116805784 3.2563881577
488 1 -1 31.0844868558 34.2142060187 29.0016899381
489 1 -1 35.9317985803 10.5829016327 11.1434097323
490 1 -1 32.9218334935 25.9722409173 5.00886088837
491 1 -1 30.815411961 12.4323705991 19.4417198764
492 1 -1 43.463043709 8.11974270419 36.8645534377
493 1 -1 29.0263812204 26.9914303252 6.72795980119
494 1 -1 43.1971333806 15.2810568869 27.146227958
495 1 -1 28.3111445402 41.4604001982 44.9894124713
496 1 -1 30.3776498218 24.9920067605 39.7970947557
497 1 -1 41.6231865972 20.3011349129 46.0986170311
498 1 -1 34.7319686508 44.0036657142 8.26031099987
499 1 -1 38.2481909943 17.224540024 19.143396419
500 1 -1 29.0274832491 23.2824499078 29.6779141032
501 1 -1 37.8322385533 12.5556682821 23.8004163557
502 1 -1 38.8273231643 27.370393386 2.8317395776
503 1 -1 42.3126597826 28.399875611 45.9745511123
504 1 -1 32.3264626343 44.2903277371 9.99551595312
505 1 -1 31.6131483522 10.8354569287 15.2011832541
506 1 -1 32.7292067897 33.4237349621 8.28818754802
507 1 -1 29.6150961091 15.0329761935 29.3824730808
508 1 -1 28.0946375464 22.1992376235 22.0463952241
509 1 -1 31.2991205594 8.64503671165 36.2678626049
510 1 -1 29.8224630026 24.0419976783 46.6853551245
511 1 -1 28.7451989225 4.23012217683 37.0887055465
512 1 -1 42.9589113578 5.05629059173 0.956006727671
