LAMMPS charge data generated for ESP error-estimate validation

512 atoms
1 atom types

0.0 48 xlo xhi
0.0 48 ylo yhi
0.0 48 zlo zhi

Masses

1 1.0

Atoms # charge

1 1 -1 2.05066074657 46.7758022742 28.3434269848
2 1 1 33.8019494365 8.71151673902 43.3742764149
3 1 -1 23.2237783967 12.2514596782 24.4927419089
4 1 -1 43.3695845218 6.46212519393 31.4319400384
5 1 -1 6.10861325434 28.4764208815 40.1169446143
6 1 1 38.8771967992 7.61129858187 40.02261107
7 1 1 25.5028967758 3.36660198685 24.3124879456
8 1 -1 1.60424331736 30.9768825622 28.4073564341
9 1 -1 44.3480855483 4.93334313925 15.0996674488
10 1 1 22.2206984908 30.5978314909 24.0561835915
11 1 -1 15.4655524322 21.0446531176 42.9507544054
12 1 -1 19.4378942134 19.0524849282 42.4488387723
13 1 1 39.8307958231 45.3986993371 21.7596321235
14 1 1 13.1745108749 36.1230305706 10.0107383846
15 1 -1 41.391742006 44.8383308462 6.61978317539
16 1 1 32.3343788698 25.1200966342 28.9993371911
17 1 1 12.4360043205 24.8961632212 41.3409361261
18 1 -1 18.8160958766 8.95894240794 4.18941872211
19 1 1 6.52149994149 43.109515266 37.1806535044
20 1 1 17.322069034 32.3806477727 16.3194906544
21 1 1 26.9133393061 3.43715531506 20.5782201425
22 1 -1 35.8059416244 18.2544818094 12.9024042353
23 1 1 35.1849978924 41.4039764134 34.9237654508
24 1 -1 35.8050802424 11.7560692618 33.3198313931
25 1 1 24.1853256581 43.5778759116 37.6061113625
26 1 1 9.75087788384 1.52195527288 33.0719385261
27 1 -1 17.4176141156 44.1504506781 6.02024833871
28 1 -1 17.6133671403 47.2758263214 0.565679558858
29 1 -1 40.5402479467 27.455641906 28.8592878283
30 1 1 7.34428495569 4.62713596905 10.2399669434
31 1 1 3.04027886468 14.9383667694 41.9459714701
32 1 -1 4.32330603259 33.3086513686 31.4013211659
33 1 1 5.52219248252 12.1044460181 27.453962251
34 1 -1 44.5077689303 25.8653017854 34.2480649077
35 1 1 5.83779028132 11.1279994845 32.5061908848
36 1 1 27.1858417825 0.338867526725 13.2624559092
37 1 1 31.9515689228 20.3779169058 47.0125699528
38 1 -1 3.76363981804 21.129910698 18.1998102998
39 1 1 0.933878861098 4.70330985351 7.55785482507
40 1 1 8.51447261724 37.5079301637 11.3201790899
41 1 1 46.7067689944 12.4478513598 34.8943189609
42 1 -1 9.62331919429 0.152793503039 26.4662728097
43 1 1 43.6745045782 39.9607399979 25.5545198093
44 1 1 10.1020299478 5.00470085437 23.5260210222
45 1 -1 14.4801371576 33.2988642333 2.40674126975
46 1 -1 14.8527447629 32.5504690226 34.7983217508
47 1 1 23.2903410251 41.1345322327 20.2695507676
48 1 -1 6.91119436794 42.2587794996 14.4027781057
49 1 -1 3.36473520769 30.1996660683 45.9721266296
50 1 1 22.4193668917 17.8835922923 29.0883141206
51 1 1 9.64855690876 14.0884291484 17.7572626091
52 1 1 7.25715580233 38.5947503354 21.4867852435
53 1 1 32.3276414123 4.89515717466 34.5587188964
54 1 1 23.3512214683 11.5437434745 27.6773670816
55 1 1 47.6234531838 47.3830405807 27.9365847
56 1 1 37.1371244745 9.79405351134 19.5171683149
57 1 -1 43.7298266806 34.2541856353 39.6686421801
58 1 1 44.1828856349 6.74741614716 47.148573125
59 1 -1 10.25583229 46.5953597684 31.7972161027
60 1 1 35.7627175615 7.43924880994 20.7184726138
61 1 -1 39.6226041161 46.3597726828 22.5933145809
62 1 -1 41.1328993509 35.2910067752 29.3236874364
63 1 1 23.3539596012 9.07820280696 23.9060608889
64 1 -1 9.65386760912 36.6836861976 19.9443721907
65 1 1 26.7390063038 1.8221938595 14.7924067069
66 1 -1 31.1509712698 42.7065386174 44.7756249895
67 1 1 27.2496283067 21.1974194557 8.48156124849
68 1 -1 20.6555418225 40.9978031267 47.5201787256
69 1 -1 20.5326476528 2.2910421484 44.1146128404
70 1 -1 36.4071210489 19.5391896668 13.4020159132
71 1 -1 34.8091220028 43.2682943315 40.076634419
72 1 -1 18.4316283435 43.5465135593 34.8447961892
73 1 -1 15.2342683661 0.37669052138 32.6211291978
74 1 1 30.5077713754 23.6202319625 22.7460809144
75 1 1 26.0078332531 12.0097119801 39.1361601489
76 1 -1 32.7128256218 44.1864051687 28.7539740456
77 1 1 6.20498704148 20.1364674962 32.1601186514
78 1 -1 40.3520161919 1.39753178556 19.3312594079
79 1 -1 37.6234604414 33.1263714669 34.4420364368
80 1 -1 41.3976731004 12.6483521056 40.527473874
81 1 1 4.4752904818 45.3252550337 33.1653344914
82 1 1 34.8785507104 38.023431804 20.9188057746
83 1 -1 0.938303279295 6.11068196539 26.1886113702
84 1 1 42.2014143135 36.7647524624 19.9617174573
85 1 -1 31.8950268974 7.80375399921 24.6320140165
86 1 -1 3.26247531917 32.0954250982 21.7147388656
87 1 1 31.6168489536 10.9222403301 46.3999468564
88 1 -1 12.0829041492 32.0220015405 2.25788155108
89 1 -1 37.9533377023 14.3953875293 46.2733334462
90 1 1 20.6436389234 22.4216069576 35.5879179494
91 1 -1 4.01573146359 26.7823486714 40.5434486002
92 1 1 10.7005394134 8.69262454002 30.2979114442
93 1 1 18.8364161677 41.6184648919 11.0568665492
94 1 1 32.6338468556 45.656348161 7.34828494672
95 1 -1 35.3446283584 29.4750726665 1.08836455244
96 1 1 7.97574539646 9.01414289972 7.95414552125
97 1 -1 7.31550271397 29.6078656592 43.4806162931
98 1 -1 38.6757959704 43.2438722242 6.9535427736
99 1 -1 41.1530405535 11.8799952867 43.4184885851
100 1 1 8.09014192901 40.0893654896 29.7839435825
101 1 -1 0.412260071329 30.6335820252 21.200591698
102 1 1 32.4926952063 41.1764226027 20.1503652712
103 1 1 28.6514814154 29.4495561283 39.9789540977
104 1 1 39.8702382982 29.2632892606 4.86095925853
105 1 -1 3.88153987699 40.581852926 27.4387836925
106 1 -1 16.5126272806 34.3076297171 9.14943192836
107 1 -1 12.2299429489 25.0240854972 16.0230695315
108 1 1 30.4399513588 22.0252711065 30.5860590488
109 1 -1 7.42131889802 24.4810337065 44.7619609569
110 1 -1 9.10113745983 26.0601007161 33.200141628
111 1 1 41.1882010021 20.4549417124 4.42642414366
112 1 1 44.4094503484 1.01479360403 22.5268469876
113 1 1 17.8167953941 40.8338743876 39.9404821889
114 1 1 37.2045597618 13.0086945971 41.456341788
115 1 -1 35.1704490304 31.2327118258 1.96261494537
116 1 1 7.10760426004 13.0795947214 13.5213269719
117 1 1 22.4643418006 20.925897699 33.5041417328
118 1 -1 20.6690214049 1.88712619933 10.4440963457
119 1 1 43.2291653897 15.7115735603 3.57309501284
120 1 1 17.8362159365 1.35716970062 16.5492678542
121 1 1 29.6036782498 11.5897086174 3.86488654622
122 1 1 39.8368585237 26.6989615999 31.5776545402
123 1 1 18.9190596163 26.0378732517 18.5842522401
124 1 -1 47.2757934977 28.6477311721 1.50451490607
125 1 1 16.2577108809 40.0077462922 28.0055863585
126 1 -1 33.909088918 34.1470884466 47.7724737795
127 1 -1 2.62112938767 37.6407285224 27.3886915605
128 1 -1 44.923613717 29.8946145616 4.76987879212
129 1 1 6.75342866726 47.4630205013 17.6022168115
130 1 1 6.99672235028 22.2167492016 17.8313171288
131 1 -1 2.66350160413 47.5286389401 27.005075717
132 1 1 45.2193803473 17.0979690927 34.7115124626
133 1 -1 2.19251128994 43.1164206312 27.4508242308
134 1 -1 7.02996706015 25.0324129507 27.8101909129
135 1 -1 12.692129154 24.0017295843 10.3934723872
136 1 -1 46.2799140374 34.1823830387 25.6003845724
137 1 1 8.37225411814 46.1013896295 40.3565835079
138 1 1 24.9806919374 42.7588824742 20.7589301152
139 1 -1 4.57686043827 32.5665379043 4.34496419556
140 1 1 14.332142269 8.47152140553 12.8417731673
141 1 1 38.4996548364 31.6717651245 25.710254587
142 1 -1 14.4213875805 22.9870117624 0.158752911506
143 1 1 0.857307886499 26.2811097877 22.20412336
144 1 1 44.2796925147 45.7724503086 41.0805533058
145 1 1 26.9359176152 39.4720431231 43.2846183663
146 1 -1 11.1271932703 30.2366246697 1.67429231573
147 1 1 11.8640957396 28.9023733072 6.62855307749
148 1 1 3.25880978045 33.4068312713 29.4392841958
149 1 1 26.2006700177 17.5988035727 13.520397039
150 1 -1 31.6767085602 22.149125277 30.3245328911
151 1 1 44.0037564892 4.08440517547 3.08121875044
152 1 -1 42.4910424775 21.9785252106 37.1233844889
153 1 -1 30.9190488055 15.1674630546 24.2883885524
154 1 1 4.13601947107 9.49117298358 47.5340082417
155 1 1 9.94023376794 23.870200115 27.6238975814
156 1 1 44.4347672962 11.7617125998 17.4868732882
157 1 1 20.6015354586 18.0223529287 30.2505016587
158 1 -1 41.0249193297 44.4878302932 44.6617985144
159 1 1 8.85885171171 19.3017675668 36.9421384139
160 1 -1 5.09359305193 30.4924186677 29.9521537795
161 1 -1 7.62169549922 10.0160196423 31.3578546515
162 1 1 46.0222641614 8.57367562578 42.057350041
163 1 -1 35.9632569613 1.05306046088 30.1564667297
164 1 -1 15.0306957822 43.4116402453 1.10503395931
165 1 1 29.4262536917 2.80569323401 38.0391197006
166 1 -1 36.4887999908 41.2497101 15.6904876113
167 1 1 6.53179698115 37.0145218704 36.5162146651
168 1 1 35.8170014944 41.2244846604 14.3271318382
169 1 -1 2.07639019758 7.14078067168 2.19056557512
170 1 -1 10.176309674 25.8848225868 34.7197165768
171 1 -1 47.7371103244 37.1295599227 28.9153164513
172 1 1 27.9898484556 24.2037504533 17.7164251746
173 1 -1 38.5663753903 3.42510574771 23.3077273001
174 1 -1 16.6141337984 24.2923371088 11.2402884502
175 1 1 5.94059112542 35.1526760879 40.6981372748
176 1 -1 28.3964326921 30.1086722253 2.37834387905
177 1 1 6.05733483137 46.4135705887 14.4468685274
178 1 1 18.6957750828 8.97005234716 39.7118407188
179 1 -1 38.1838912558 10.3371991612 7.00100255199
180 1 -1 35.8371734368 7.28676331579 33.1352919599
181 1 1 44.5958773352 3.28447226532 13.5560273563
182 1 -1 39.8250794126 45.9707229291 15.4470506765
183 1 -1 15.5409873534 42.5639458567 24.3704994409
184 1 1 38.0463221002 10.3865903191 7.60577796192
185 1 -1 33.683955709 27.2478402232 30.9794891415
186 1 -1 36.3020346101 45.0942288789 7.02606744066
187 1 1 27.1100917895 16.91061269 40.6800264982
188 1 1 20.4557679974 10.0737497602 18.9929874983
189 1 -1 25.9948327707 20.6214849385 14.3189256608
190 1 1 41.9858438972 44.6213579937 31.3260221991
191 1 -1 20.1221183962 12.1194803017 0.67871179009
192 1 -1 2.44983037412 5.82581808605 2.02296177511
193 1 1 7.89648602278 9.88604523529 18.1929270301
194 1 -1 44.636656856 20.1730667395 31.4504428056
195 1 -1 6.48351268108 22.1982304286 15.6250141866
196 1 1 44.1997285112 24.564681085 46.7527293993
197 1 -1 1.35034766408 25.189463251 13.6860274835
198 1 1 34.9071857731 9.93745321337 37.6777728104
199 1 1 0.204407430739 28.4864421086 8.56417780404
200 1 1 15.8092025076 47.1581902583 35.0355172885
201 1 -1 0.6398520086 29.5795212094 37.9598573179
202 1 1 25.0249877143 41.3963205969 47.8573865748
203 1 -1 38.1939125588 27.6018195006 2.54793520385
204 1 -1 19.2402895838 38.1674985826 32.4906884898
205 1 1 43.9385959664 24.0062279483 28.922512364
206 1 -1 29.8183396952 29.4397039555 34.4439537628
207 1 -1 25.3599978361 2.13524630475 38.0620309009
208 1 1 15.2244730012 47.7823155977 33.9844448312
209 1 1 43.3137383441 4.41410606642 0.729907850928
210 1 1 0.0838050617042 42.0763435648 30.4931637761
211 1 1 10.7548498881 29.5711993323 14.2222550307
212 1 -1 7.6450209339 16.7552153177 16.6314338465
213 1 -1 39.0659112254 45.6930386016 38.0915387419
214 1 1 16.1174475968 37.0557190549 39.9136142395
215 1 -1 4.06525771507 33.407776178 23.4103610101
216 1 1 8.35774993909 2.67215272851 31.6671674656
217 1 -1 29.9070769814 7.67942687442 28.7507406702
218 1 1 44.4465338682 30.8564458685 18.3886843151
219 1 -1 13.7275930334 33.2760540231 6.40941274432
220 1 -1 47.0584897856 24.2248707809 30.7258813923
221 1 -1 24.2725652426 43.3673435252 30.3555940033
222 1 -1 44.1029662429 42.3289744689 38.2279932731
223 1 -1 33.8967136464 13.8039302922 13.7203197326
224 1 1 19.2488412697 30.2807607732 38.9269156118
225 1 1 0.679710812873 17.7393197275 9.93302958716
226 1 1 5.42474630163 1.12427422106 22.5397111009
227 1 1 10.4699156134 5.24341367147 3.3446493101
228 1 -1 27.0301465811 39.5787936763 11.3644578994
229 1 1 14.6856448769 40.7674739607 42.3934841481
230 1 1 16.7713841171 3.67503388053 46.5556758721
231 1 1 14.0499151658 35.1292585045 42.6031232225
232 1 -1 9.3404652654 29.4821461837 25.7999776
233 1 1 27.9943899135 1.25925790087 3.80446130946
234 1 1 5.18991973434 20.0698291348 33.2842661984
235 1 -1 46.2697906465 33.8825131329 1.21103333766
236 1 -1 31.0199412013 30.5663179974 2.02389393016
237 1 1 39.2434238213 34.2883908239 30.6120379793
238 1 -1 22.9594322128 8.76735181656 20.3489599372
239 1 -1 37.5485767155 17.9786016015 10.0372946648
240 1 -1 14.2339962959 8.79232481041 38.9683830973
241 1 1 21.430321731 38.9331078235 0.897797479786
242 1 -1 4.38448738164 2.55630353637 27.7910241255
243 1 1 39.8871220289 3.42096399349 14.109678756
244 1 -1 24.9890215095 30.5797869028 35.3779248545
245 1 -1 15.4232927427 10.9826374542 1.06548090692
246 1 1 33.3346649079 43.0855026978 37.9343751173
247 1 1 9.82446690957 21.1386682616 5.91743787978
248 1 -1 11.1188076537 38.0506755485 29.7567962466
249 1 1 15.4478533801 29.3339605082 20.0633103267
250 1 1 35.8986141668 30.7820479829 6.92152725959
251 1 -1 16.9869056918 9.55751457005 32.382160483
252 1 -1 30.155100925 24.4312117119 31.6638516561
253 1 1 18.8192384917 38.6260283219 31.8612306802
254 1 -1 5.91160249696 5.62763131681 1.45996693372
255 1 1 14.9464889385 22.4577784986 46.9807800299
256 1 -1 44.9280121368 12.2806617201 41.4555232509
257 1 -1 32.1640486705 31.7742963041 42.1792538287
258 1 1 19.0321370609 33.8312785998 26.5594739771
259 1 1 33.3293414088 1.49786397049 39.91840458
260 1 -1 27.7350830423 41.4017159753 40.5247269388
261 1 -1 24.6709509739 12.6336398381 45.9207990006
262 1 1 33.858712831 11.2736900051 12.1687062441
263 1 1 29.6071400837 36.5469079588 20.1781246396
264 1 1 33.7109722389 26.0639161666 36.6144616822
265 1 -1 38.4419809409 0.451835626021 29.6421495836
266 1 1 23.6813903409 46.7794934807 10.4046399815
267 1 -1 10.620808914 22.6853090031 38.6982262925
268 1 1 11.4848838139 16.8006506334 36.9867387989
269 1 1 4.51264001279 4.45085784024 5.46480072282
270 1 1 38.8424915244 9.2547196196 36.04961726
271 1 1 28.9044211438 4.21909991405 16.9297773833
272 1 1 25.7461996084 41.1629365777 4.95360314445
273 1 -1 38.2285398784 4.52107464099 26.618153535
274 1 -1 34.8452979283 45.4339897737 21.3026529515
275 1 1 33.228160993 18.3813957368 21.6188505282
276 1 -1 20.4482252077 21.8417229107 16.9792888245
277 1 -1 11.3289929927 37.4690834963 34.5813146157
278 1 -1 2.45660974793 30.4775435843 7.81538861439
279 1 1 20.4516924823 41.8978989657 39.3591433489
280 1 1 6.0267367803 12.6658031623 31.1114248972
281 1 -1 28.910229144 30.0259126355 41.8301922689
282 1 1 46.583022491 44.5697638428 33.456715194
283 1 -1 33.625786527 14.3131954746 38.4997092165
284 1 -1 18.8903790535 44.5954927243 34.503682088
285 1 -1 35.8166418296 14.9610623984 18.3913019967
286 1 1 1.03479598985 25.2540268884 37.4078851059
287 1 1 38.0684571987 13.3047579059 4.42503462012
288 1 -1 36.0747674458 43.7268577275 7.47237458184
289 1 -1 4.10325891354 41.4763647587 14.5049731913
290 1 -1 18.3568139676 25.8748025187 34.1766717596
291 1 -1 27.5764226323 46.1532274595 40.2316011883
292 1 -1 1.60033929581 26.4090571709 12.4253855601
293 1 1 6.64801968213 1.48431087305 30.6064568776
294 1 -1 20.3584138645 15.1894132486 10.6946676882
295 1 1 42.4998452366 35.8661548847 27.8483632725
296 1 1 43.3223677892 37.6272451642 40.2109525887
297 1 1 29.1557617109 20.6115413675 24.6753973181
298 1 -1 12.2995286561 30.8737174335 36.9669056152
299 1 -1 1.53797873816 35.3554004619 19.4207124215
300 1 -1 13.4836719729 22.5996013358 5.26038676684
301 1 1 42.9226614457 5.22228747874 38.1038519377
302 1 -1 12.773478381 12.6321561849 38.4344231695
303 1 1 5.3388509147 30.2527070499 17.2609390649
304 1 -1 14.5715809949 24.5585920016 36.7481297862
305 1 -1 37.5326561209 19.4576351567 23.1057767453
306 1 1 14.777476528 16.8742752591 15.8129214201
307 1 1 28.3965397345 6.68713291824 4.9374277069
308 1 -1 45.6182624519 34.9851177167 30.2120472162
309 1 1 35.2935004242 47.4437463938 26.6014591272
310 1 1 31.0984768805 22.2563615022 39.1245898789
311 1 -1 22.5981930197 10.9528332502 39.0207258409
312 1 -1 6.33277301619 43.0902974277 40.1079133053
313 1 1 6.04528915263 17.687529593 20.4743908786
314 1 1 18.7365228564 11.3886438865 19.2415272927
315 1 1 23.2592389531 43.3002446852 2.88051036973
316 1 1 19.3224576879 9.23155901879 26.349480647
317 1 1 21.9134391807 39.9736164575 44.0902663177
318 1 -1 37.1851941479 22.4404777587 14.3281581605
319 1 1 3.78123282041 41.0179872984 10.6234523751
320 1 -1 14.0019687273 33.9487258858 41.4526239407
321 1 -1 1.24408322566 24.8048063873 35.7545449449
322 1 -1 4.43474818962 19.1295847704 45.631165776
323 1 1 13.8510171523 44.3080774267 29.4787517572
324 1 -1 38.1897772574 40.1117601992 6.69959722652
325 1 -1 7.86283732177 18.6815727214 27.4152854994
326 1 1 23.4084242762 3.62756158051 26.1177919096
327 1 1 8.11124002203 3.31116525988 34.9070527888
328 1 1 47.5217493493 26.5226349101 12.5747043031
329 1 -1 44.7554164743 16.6713557705 2.21371427814
330 1 -1 40.3951705185 34.9553763153 35.6022277217
331 1 1 30.6441623597 9.95136558433 33.3400043235
332 1 1 10.4478676873 37.0867388827 44.3764511084
333 1 -1 37.0156732801 40.3263152065 18.1384187388
334 1 -1 11.4466972093 38.7796135024 0.617174599139
335 1 -1 31.5979415782 37.6584627216 0.420335487604
336 1 1 24.5790986006 41.6327152865 33.0470464654
337 1 -1 12.6685626607 3.40756076788 26.712378952
338 1 -1 5.08547710839 13.536734005 35.7711104831
339 1 1 14.4699688946 22.9381038223 46.3334241642
340 1 -1 31.3265186467 39.9309750371 10.9303571555
341 1 1 36.9304064639 8.64364908083 22.0176412688
342 1 -1 13.8430280457 7.55770184562 27.930488797
343 1 1 26.0600903384 12.9945949293 31.7247971499
344 1 1 1.58199726971 47.2420532038 37.970987012
345 1 -1 46.4084000855 19.716123238 18.322419464
346 1 1 15.1260508532 34.8149873968 10.1866616568
347 1 -1 28.8761764119 1.80836935756 32.5284216094
348 1 1 14.8802873647 30.8852796406 36.2503883346
349 1 1 41.7920756352 40.771173616 16.5134454484
350 1 1 38.9283223336 24.8669878975 20.9374251351
351 1 -1 1.74863172746 23.4244281667 27.6331484201
352 1 1 1.47828398592 1.57680906115 24.9315125185
353 1 -1 0.116264940825 17.1765993009 18.5991635565
354 1 -1 41.4390520808 17.1635676878 7.76145649957
355 1 1 15.6640601692 44.8200985713 40.9668395263
356 1 -1 24.9355837042 3.92439954409 33.3542293231
357 1 1 29.9197558322 45.8485356397 32.5617128483
358 1 1 16.6656057494 45.4111457376 22.8422215902
359 1 -1 35.0573935454 15.1202378347 41.051746248
360 1 1 34.3285342915 29.395677766 24.4772193375
361 1 -1 6.24933622111 38.4648614856 24.9903692349
362 1 -1 20.8517827553 10.4497809516 30.0000711868
363 1 -1 7.06494771698 42.2721981398 13.1871779932
364 1 -1 22.0950899224 13.1867159594 40.762030709
365 1 -1 47.8414293885 24.749999964 29.8262031663
366 1 -1 13.4440853036 44.2762186729 22.478330571
367 1 -1 18.3414908848 28.5348357364 46.9931944484
368 1 -1 19.9769946862 7.82702225888 36.7574447826
369 1 1 43.0985787796 39.5965519318 45.7934578779
370 1 -1 36.1992952178 43.1987620438 22.2652367006
371 1 -1 1.4427351992 40.8053602847 33.0993270577
372 1 1 7.33947468322 24.9813905572 9.40687860228
373 1 1 3.03546911182 19.4980588888 1.78725159528
374 1 -1 30.5909465865 37.9849348261 17.8453291441
375 1 1 46.9507391558 26.3695132306 35.6345378049
376 1 1 19.0903229264 26.8413323506 2.0278691033
377 1 -1 17.9830144192 23.2489986748 28.5751746187
378 1 -1 23.2738878104 12.2096904931 22.8532945348
379 1 1 33.1824420112 9.38757352132 34.9915872408
380 1 1 13.3339686764 42.6053734053 29.18129622
381 1 1 25.6771534938 5.4943757447 2.30976988596
382 1 1 10.6865901869 47.1305946365 35.3553253952
383 1 1 41.5794430384 23.1548732165 13.1749331255
384 1 1 19.3770591216 15.4956208466 42.3165749168
385 1 -1 13.9609195289 22.3683750741 16.8504670679
386 1 1 1.77286630028 42.1213158207 26.5880148944
387 1 1 45.7078922096 44.7842503082 30.3466817508
388 1 1 30.9475180396 25.3094671856 37.462008883
389 1 -1 40.0634382737 23.1702353489 1.07847768516
390 1 -1 32.1797856595 14.0888744594 41.6362268248
391 1 1 32.3241199955 8.34042766134 41.1268077547
392 1 -1 1.74918947823 3.92096480262 26.3348922486
393 1 -1 18.2534141701 39.2835447007 9.57680987841
394 1 1 12.8178403657 23.4979909972 29.0310206887
395 1 1 38.0895014525 16.7396209484 46.6115211107
396 1 -1 22.4965073751 38.3941656348 18.941694579
397 1 -1 42.773266307 23.4336431135 21.8948766475
398 1 1 10.5038816315 16.8877752061 4.03036110511
399 1 -1 18.6312891535 36.2816026229 19.5705373324
400 1 1 41.3657140715 2.77163105332 46.104690074
401 1 -1 44.4895221257 40.8455927671 9.95177976374
402 1 1 29.7383829957 41.7176395025 17.8575946386
403 1 1 33.1080574694 1.59904977538 32.9367319119
404 1 -1 8.92799186418 24.6570422015 34.3709087942
405 1 1 33.5279784169 19.1642490874 28.7095750744
406 1 -1 34.0627665585 18.1769900869 5.59409281448
407 1 1 35.8446015159 29.8308757411 23.1370231633
408 1 -1 25.8339714625 31.3448202682 33.8249647633
409 1 -1 40.14231152 6.4152900356 20.4444624246
410 1 -1 16.390016781 38.2317410009 6.37176759413
411 1 -1 1.26821953293 1.95322365774 28.6869137039
412 1 1 38.5327548174 24.7959990103 20.8264138634
413 1 -1 37.9148562797 27.1991676521 18.2390811056
414 1 1 18.8724584246 30.5917846306 7.90019478327
415 1 1 32.6673777905 2.37047019363 23.7444565816
416 1 -1 34.9386493853 22.0608198926 43.436231638
417 1 1 21.777170108 11.8821290632 5.14917614409
418 1 -1 36.5952649616 27.3385172294 31.006965382
419 1 1 23.2169438715 33.6431732073 42.1932522766
420 1 1 12.6562760495 42.3191763045 12.2130680183
421 1 -1 40.638768134 2.48567583506 30.0322328375
422 1 1 36.819099676 1.41832582916 26.2806123231
423 1 1 18.6104135274 26.3078891138 21.6967995257
424 1 -1 34.7866539461 43.4072121267 7.05430611846
425 1 1 12.4864757298 38.6370559733 25.4017804873
426 1 1 43.7474990132 16.8000675192 14.0116747086
427 1 -1 10.1543876515 31.4731651563 10.9941164068
428 1 1 26.9118972013 1.38969710164 45.043064338
429 1 1 39.534387098 40.2768256981 39.3087324598
430 1 1 46.4348469321 37.0753082 20.3061565203
431 1 1 44.745655417 38.432230638 43.5880514268
432 1 1 34.6030106319 12.4532445498 30.3763909128
433 1 -1 1.94364180728 26.0379570504 31.4281110866
434 1 1 46.7638612844 11.0663090969 19.8585505629
435 1 -1 12.4996140377 3.47446076589 23.7477439651
436 1 1 2.30020907234 37.7212063323 37.3064322047
437 1 1 41.0239473004 47.7267468709 18.3517716324
438 1 -1 15.7460257129 14.3450090405 35.4827288873
439 1 1 27.035138061 34.629297498 6.61287803327
440 1 1 9.36346189856 36.8794189729 15.555335081
441 1 1 36.9322959544 10.9129559246 44.5193409773
442 1 1 0.522174949649 32.7001013355 3.84432014047
443 1 -1 27.2379926192 23.1153714857 31.2504862089
444 1 -1 19.813436202 15.7320729837 2.09326669025
445 1 -1 15.5799826111 24.1422102597 43.6784284902
446 1 1 39.0435529139 41.3630004663 15.3435199551
447 1 -1 22.4741297895 45.0921159367 24.1469952984
448 1 -1 33.91821422 18.6137080551 28.5686055907
449 1 1 31.1933770658 28.5076900093 34.6373961151
450 1 1 29.6655105217 23.2042385877 26.7205696052
451 1 -1 10.1229784302 7.55364753092 23.4912580038
452 1 -1 29.2719468538 29.4213183482 24.6266759779
453 1 -1 29.1873690712 42.1317019287 41.2214654945
454 1 -1 0.619263344003 25.2623205725 2.82647052946
455 1 -1 23.4086905255 10.016686089 21.8308475751
456 1 -1 23.7495914749 41.3249687852 42.3799733517
457 1 1 14.976577073 43.980385661 7.09966491964
458 1 1 26.8396851639 25.7965148561 46.6683905659
459 1 -1 21.3684395407 0.884392846456 22.5903456033
460 1 -1 46.4834413368 29.0378170483 9.22314966168
461 1 -1 8.46061874602 11.2295830941 22.0193892088
462 1 1 44.3644943163 22.5041428226 27.684792568
463 1 -1 47.9587861858 8.62216352302 12.3676466044
464 1 -1 37.3528224403 38.033046514 32.6572652548
465 1 -1 16.213058344 39.2554157283 2.5040338124
466 1 1 5.6148744305 18.3415376406 7.27030664546
467 1 1 23.9904073433 39.1015678639 2.29174874145
468 1 -1 43.2656905457 42.6341714099 0.231077480193
469 1 1 32.6625309591 2.24214732827 39.5265670333
470 1 1 46.6664165111 17.3420388714 26.5097371254
471 1 -1 9.41017241219 20.937195474 22.4776766808
472 1 -1 47.7238395575 46.7105416639 35.5855113481
473 1 -1 3.02801780635 16.220771748 11.690890886
474 1 1 24.2954409162 21.2643553533 38.1294541465
475 1 1 41.8415892406 4.99924407066 4.76746714752
476 1 -1 36.0458409788 22.7554267602 19.8297268798
477 1 -1 5.06199691264 34.8570636861 31.5222703899
478 1 -1 18.927793043 7.61661681583 14.9864257128
479 1 -1 30.0352088239 4.49693986908 8.61564555404
480 1 -1 6.49524934209 2.27052893956 16.0692405873
481 1 -1 27.7185090798 1.84306389544 42.834982805
482 1 1 38.7627915425 47.7674528659 0.00664818432587
483 1 1 9.20423417493 9.17183934095 36.0278883213
484 1 1 33.9515532802 12.4309446064 27.8678219513
485 1 -1 23.2550844042 15.6174453485 9.46935263233
486 1 1 16.7002754985 44.6717677141 11.2996609311
487 1 -1 8.79816491319 43.5832827046 6.21173181552
488 1 -1 5.30707238893 42.1358864971 34.4071433938
489 1 -1 25.5036395455 45.9428527377 46.0541758409
490 1 1 26.4185240997 44.9210009644 35.9170725601
491 1 -1 0.160162155229 36.2256449635 15.9559302492
492 1 -1 33.2717964726 6.8183628386 21.7867698688
493 1 1 34.6549117294 45.2980822845 0.592810848887
494 1 -1 0.942815258515 36.1066300941 19.0877282774
495 1 1 37.1331811699 30.6820507003 19.9588883766
496 1 1 17.7616251092 9.11346006849 10.7769326027
497 1 1 15.6789996541 38.9954669618 30.5449905902
498 1 -1 25.4942408504 39.666778711 27.6169394551
499 1 -1 22.5653792169 11.9120613657 45.2934093141
500 1 1 4.60739242601 21.8199571982 3.66292072672
501 1 1 24.1747184122 17.1509763768 5.67268990194
502 1 1 7.96527502588 6.05999274366 11.7459164938
503 1 -1 6.04906994748 35.6815899873 47.2233641955
504 1 -1 24.1031992904 23.7049922712 24.5310637428
505 1 -1 33.5059126026 8.71408340149 31.7987531182
506 1 -1 18.6146408808 8.6053863068 14.5337812551
507 1 1 25.5255440334 22.6700885419 45.9771388679
508 1 -1 39.4345921017 25.8934300185 1.83566837402
509 1 1 23.3647112892 28.621994811 0.678348998682
510 1 1 19.0980823336 25.764838197 11.5052360985
511 1 -1 8.32145903715 36.5550421036 32.9342197613
512 1 -1 15.813056227 17.1434976208 41.3023378893
