LAMMPS charge data generated for ESP error-estimate validation

512 atoms
1 atom types

0.0 48 xlo xhi
0.0 48 ylo yhi
0.0 48 zlo zhi

Masses

1 1.0

Atoms # charge

1 1 1 9.90069794138 34.7650665516 22.3152706216
2 1 1 11.476280306 32.5086587705 24.6419575285
3 1 1 10.7032283836 2.61497139768 37.1061411146
4 1 1 8.46074831232 20.378301277 19.7530597991
5 1 1 12.8875285519 14.9423648869 0.514584385049
6 1 1 4.7962947091 47.5272025323 24.5605356825
7 1 1 13.5710483769 35.6463518914 32.4599392902
8 1 1 7.73472353877 36.95227766 8.79768339905
9 1 1 19.5384249676 23.4611126963 32.5147277463
10 1 1 12.4163328524 42.7836002345 46.3093589184
11 1 1 4.57966589848 27.6396590076 15.9871928651
12 1 1 17.9824302444 26.8293528725 20.7956100282
13 1 1 14.6353904234 18.2406988668 15.7951857528
14 1 1 7.94770428904 30.5819488934 28.3564775786
15 1 1 4.01790609569 27.9041693325 13.7440441246
16 1 1 11.1982216341 22.3741102879 5.24758429378
17 1 1 5.32869312336 29.9277843647 34.4208219307
18 1 1 18.2570447514 34.885370421 45.2070532567
19 1 1 12.5802459975 47.6689185097 40.7116738873
20 1 1 18.0986312575 7.24909325193 25.7117591674
21 1 1 15.3706641653 33.5009812364 41.127049044
22 1 1 18.5538913643 46.5409619819 43.5122066274
23 1 1 8.9041943107 23.3271192662 5.36854893872
24 1 1 6.80704757721 13.2757454947 45.1793354086
25 1 1 14.7165034148 30.9933128435 13.6997699709
26 1 1 19.4509324995 15.1819654348 21.1001589892
27 1 1 6.27102601901 7.6612356141 9.82568916488
28 1 1 4.79976730787 41.1355847409 0.958854114593
29 1 1 6.84449157588 31.4710676477 29.8867558305
30 1 1 4.89995112075 43.3200566721 17.7910718221
31 1 1 16.1187289097 35.0312912062 26.3869868693
32 1 1 13.8806759353 47.0985044189 31.5037634004
33 1 1 16.4863953363 11.2152250409 22.3232973162
34 1 1 4.7382197637 44.4521891802 23.6878779472
35 1 1 7.32884406779 45.5242448136 30.3527533209
36 1 1 6.16879409168 46.222348674 23.8943179091
37 1 1 12.5111151678 35.1351509711 44.0556095492
38 1 1 11.6288489982 42.5212784686 5.67885456996
39 1 1 5.13166816271 17.9111186305 38.196885245
40 1 1 5.02882852205 4.78579467546 15.9010911739
41 1 1 12.9409809839 35.6873252786 34.8037868908
42 1 1 12.1482971145 21.8116582614 5.40456245699
43 1 1 18.6867381281 14.7159431847 20.6315490465
44 1 1 12.4965892955 33.6932156612 9.87294116779
45 1 1 14.0390054415 10.7968217415 38.9762424409
46 1 1 15.1754365071 6.07510076274 10.5763667886
47 1 1 12.2860742566 10.2427873135 20.9993747595
48 1 1 11.2188251195 19.7372343916 45.2314272584
49 1 1 16.2164126017 8.00387630545 39.6069318403
50 1 1 6.58028378803 5.24547293066 7.03850789505
51 1 1 19.6616389076 40.8345570112 46.0423753453
52 1 1 10.5399287089 4.69438243008 18.4454891552
53 1 1 3.84841387807 14.5668897109 13.2389456727
54 1 1 18.3532122734 18.3857135355 21.7284573179
55 1 1 10.7765592822 35.4045672074 17.0330314372
56 1 1 7.09322901473 8.82918176276 25.5382562484
57 1 1 17.7953233405 38.6143888522 43.1958043342
58 1 1 16.4310958667 3.64285961966 46.0422166103
59 1 1 6.28380135507 5.43496624558 13.1799628416
60 1 1 18.6859496282 45.610170695 45.104934764
61 1 1 12.8558930577 18.4466395137 33.0104212464
62 1 1 18.9671405263 27.0273147796 21.775164161
63 1 1 15.9371744226 14.9069703994 18.1842574683
64 1 1 5.80990153443 35.6086797004 10.6707801449
65 1 1 18.1194415656 2.94127182756 40.330491024
66 1 1 15.6488152699 15.4247665551 1.56380340541
67 1 1 14.2124336247 1.5596532404 47.8175852336
68 1 1 5.9177093637 3.55181493805 13.6127392625
69 1 1 17.8821473608 10.084159641 13.2132741957
70 1 1 6.37451600287 32.6776860837 18.8972600625
71 1 1 12.3301549577 1.13949833689 29.1592758994
72 1 1 14.770625516 4.51246982623 34.8052149919
73 1 1 12.5231796529 13.6116157152 20.4765903379
74 1 1 16.9078645141 29.7552368954 23.1118550617
75 1 1 12.5393472148 42.6419900108 43.2952135135
76 1 1 5.15896687118 3.16747800323 25.2293466371
77 1 1 9.98383187273 1.09358932569 10.4852506599
78 1 1 12.2493614746 7.39597356362 10.4864794956
79 1 1 6.83403281505 45.6758011778 47.6403318428
80 1 1 14.0744346595 0.758177328868 10.752159454
81 1 1 16.8829785862 31.3577802944 44.8594915706
82 1 1 19.2919749112 7.47940272764 5.76924328352
83 1 1 13.384542002 8.08975815673 27.7139763736
84 1 1 5.52895514002 30.4853133221 31.5979065291
85 1 1 15.7035344781 6.53387405857 17.1335481261
86 1 1 18.4833509985 12.467731676 11.3417634864
87 1 1 7.99565647478 38.5146239298 11.1899570853
88 1 1 17.8102456439 34.8635229253 5.15575051803
89 1 1 13.1623047698 38.2522392476 32.2801651423
90 1 1 9.39763437808 25.8709504346 24.13066035
91 1 1 15.9633548927 40.0507194172 33.1877385217
92 1 1 12.3826832325 5.5259612038 35.4045592743
93 1 1 5.38332626235 31.6769412905 25.5191665358
94 1 1 9.51778573344 11.4821696942 44.4464051037
95 1 1 12.2278079658 20.5020069287 24.5114629423
96 1 1 18.9389211045 27.2300552326 2.8562847162
97 1 1 9.24637443021 28.5714299779 30.403086565
98 1 1 18.6284794969 21.5856036646 47.095045611
99 1 1 17.3594671201 10.3651273551 36.9412403202
100 1 1 19.0870848085 38.203044041 28.1398662584
101 1 1 7.60131183815 19.7923347005 6.24262701938
102 1 1 10.9025794655 21.0438911427 44.5770472311
103 1 1 8.96872176292 11.2799168744 29.4944650433
104 1 1 5.5480316957 33.7395473626 4.38855735948
105 1 1 4.72799039752 15.7763844058 23.6992441487
106 1 1 15.2196868579 25.5065549086 27.1606940838
107 1 1 8.36722416954 0.495251228189 8.17208405392
108 1 1 4.37457016697 4.10473165033 38.2296349262
109 1 1 14.7455217525 29.0746942999 27.3978482643
110 1 1 6.47625250041 17.1236498787 11.1662344575
111 1 1 5.81826194366 47.2928431792 8.9791080088
112 1 1 8.72130585919 1.92684299652 16.3849337019
113 1 1 9.24435991684 36.3160014139 6.47870352758
114 1 1 9.43843560085 9.55263979099 1.75910967554
115 1 1 7.35941775233 1.33478099238 36.09680794
116 1 1 11.2636696465 44.8697973757 5.05193553032
117 1 1 13.2159744956 16.7394006334 31.9853417108
118 1 1 17.3433241054 45.721141195 20.2530278089
119 1 1 4.6748612521 29.237284777 42.8473134917
120 1 1 10.3637441724 38.5233521818 44.9748550775
121 1 1 16.0375973856 27.6813841058 5.25303220169
122 1 1 12.2345230838 9.17850679128 42.6141302974
123 1 1 5.12555678479 31.4760687402 37.9913392502
124 1 1 5.87563729234 42.9540713683 3.98430076608
125 1 1 19.933496098 7.09515011545 13.9211776954
126 1 1 15.2907811958 42.8932119867 1.04355997836
127 1 1 15.969155423 31.4949086625 2.1537408167
128 1 1 5.39462249047 4.71525237584 0.545252327282
129 1 1 13.1898214631 45.1698324203 40.0236462371
130 1 1 11.2709913598 27.0448344983 26.415664795
131 1 1 4.20043763796 15.4003418181 33.7986267004
132 1 1 14.7704081607 40.8313419352 13.5950090634
133 1 1 5.41504923703 47.0769572877 37.1185446497
134 1 1 18.5001424692 12.7259488962 34.2215376244
135 1 1 18.7192920014 36.0843516265 15.4171138872
136 1 1 11.2333043324 44.5850489392 2.42376819742
137 1 1 5.22928711241 33.5955536858 38.2309583737
138 1 1 7.98816902381 20.3161711815 0.790526431922
139 1 1 19.1369186593 21.5664003204 17.4360618688
140 1 1 12.7595693406 40.0414577189 36.1789307724
141 1 1 9.54764804183 22.794402278 19.2644503942
142 1 1 9.04416964593 4.57856688752 26.7207513536
143 1 1 14.2683758608 8.60474737432 37.4913999467
144 1 1 12.4343782586 35.2885658334 14.1672076204
145 1 1 6.03050974247 27.4102639829 37.1548923303
146 1 1 7.10809725614 28.9019922786 15.3726552513
147 1 1 8.85062743311 6.67258325432 5.28975142258
148 1 1 16.6504239931 0.0379596193246 2.99154674781
149 1 1 8.80275651123 47.8690891339 21.6140036589
150 1 1 17.2655846855 28.6766436822 23.5545505814
151 1 1 6.06252412474 42.9910153072 11.4678336214
152 1 1 10.6165212516 39.9479489439 29.7727215323
153 1 1 16.7205423705 4.41888912601 46.0674940807
154 1 1 14.9922185941 8.96319092101 44.4754378649
155 1 1 15.0224751244 22.694035499 7.03193861041
156 1 1 6.89723592317 41.5513363958 28.9010027396
157 1 1 6.78404743034 14.83673343 7.75947117628
158 1 1 4.63258266545 27.1981358209 26.962012406
159 1 1 11.1346902079 19.8065159189 7.7489896733
160 1 1 13.7532453353 30.058457705 6.22796055986
161 1 1 10.654079126 17.4177478989 41.0515078585
162 1 1 11.8447836338 43.936860338 21.6401163455
163 1 1 9.22190682348 24.8419823954 1.03805174168
164 1 1 5.19110485288 29.7209026632 41.6350124223
165 1 1 17.0353319105 42.5107049814 3.65764259805
166 1 1 18.408160831 13.1319866087 34.2770657769
167 1 1 16.5296322495 27.6953247363 17.171721456
168 1 1 11.4487829741 27.8984418667 44.2910146893
169 1 1 15.963208233 18.8614988581 4.18356737242
170 1 1 10.4740627755 41.5170233843 27.653064778
171 1 1 19.8080628272 38.9347499889 43.5483479173
172 1 1 17.2318985534 19.5898289906 20.3029437931
173 1 1 18.1700762394 29.9143782837 3.74938457524
174 1 1 10.8485255143 39.4304034679 22.8469510384
175 1 1 8.46688785894 29.3974297023 14.3036547296
176 1 1 9.1144315917 11.5440155694 44.2160346964
177 1 1 7.19445274835 1.23852832882 42.4469743069
178 1 1 8.29330746297 14.3245741879 9.21462088097
179 1 1 15.5579084945 37.8413665757 13.4934302198
180 1 1 20.0010949359 36.2946529315 24.2943917404
181 1 1 10.5847159903 30.5752823194 20.4449492589
182 1 1 5.21485582968 46.6474465632 16.3243499076
183 1 1 4.56085737362 42.6707545846 29.5180212268
184 1 1 5.72613789046 36.3773974445 12.0243280264
185 1 1 15.0798452378 21.4650354717 20.3758772381
186 1 1 20.1000986534 31.0954967499 8.22764034795
187 1 1 17.8364321083 37.3190040115 14.7571872206
188 1 1 6.75271528373 39.8353977972 0.895909892407
189 1 1 12.5289605303 41.3134876093 22.9698444886
190 1 1 8.37662957953 7.15402648332 27.076822415
191 1 1 9.70658524054 46.185382391 40.3286740234
192 1 1 12.2502773076 12.1222862332 17.2387320098
193 1 1 12.4009679077 44.5882155686 17.2263494081
194 1 1 8.37899478608 45.8479813959 41.5515245233
195 1 1 8.67993813974 26.3154418077 44.49737797
196 1 1 9.54408676541 19.6209862678 23.4022685772
197 1 1 8.57944463862 18.878939084 24.0989423675
198 1 1 17.0432108114 4.19001633211 36.9788477463
199 1 1 8.71727415511 45.4873300263 10.113103328
200 1 1 17.9137237973 18.6819107353 10.9957803829
201 1 1 14.7069763271 30.0118037774 1.28379669253
202 1 1 17.9332170796 1.10612980537 24.2230299233
203 1 1 12.232315773 32.4193950914 22.7201206031
204 1 1 7.0386352413 4.6590638199 40.8145594684
205 1 1 14.5245168555 12.3102164047 3.42954269275
206 1 1 12.307273269 7.64164188528 7.38043325392
207 1 1 5.22281050869 27.7354418037 44.4962597538
208 1 1 11.8011762921 3.7140731055 7.61298587285
209 1 1 18.5239456504 45.9249333504 32.0071383717
210 1 1 17.3347287087 44.2674743917 29.6416093317
211 1 1 9.9659877662 38.0037418906 46.2094356339
212 1 1 4.15099114804 36.9959766506 33.9901335489
213 1 1 13.6867577655 18.1860964565 31.3249968853
214 1 1 15.6187454767 4.52454440983 3.43172945473
215 1 1 6.72824425009 34.9984264818 9.00068547112
216 1 1 8.04850777508 9.28440714771 30.9917813905
217 1 1 4.01412435129 24.1474241755 5.00972308721
218 1 1 19.7847881998 22.9628509748 41.9868921339
219 1 1 7.67570810273 31.6739469441 32.0478150971
220 1 1 14.6739305323 13.8721317504 6.21284363263
221 1 1 15.5319621357 45.5441738994 20.708971853
222 1 1 11.2995708933 13.1188361345 31.06195605
223 1 1 17.2718066257 24.1750379455 34.9747750203
224 1 1 13.3570251895 39.3773478016 43.4797934044
225 1 1 7.99618149328 44.818781852 12.7099564868
226 1 1 5.05886637251 45.7474646214 47.9853894468
227 1 1 17.9406314364 0.0391805898941 12.6468349468
228 1 1 12.5580092669 20.4723620432 36.315694407
229 1 1 12.0504197655 0.486383408171 40.6097625814
230 1 1 12.6049865966 2.51152090991 7.0213255015
231 1 1 10.8582017096 9.83116005017 22.2826809662
232 1 1 18.8914910469 22.4394289054 21.0305081077
233 1 1 20.1576105189 41.9310600856 31.2026820361
234 1 1 4.34480309335 9.73771612274 27.3690254873
235 1 1 14.3197828561 2.60936905745 19.4691146224
236 1 1 6.97454841564 28.0054754323 23.5918063411
237 1 1 17.6381894154 25.7005968159 27.5700951851
238 1 1 16.4143535068 33.1913251862 47.2229262255
239 1 1 16.4242904124 6.90129666213 14.5812393218
240 1 1 13.3494282034 5.01293641659 9.97238071737
241 1 1 5.52590881864 6.97617131206 33.5464494706
242 1 1 6.91209269642 35.7240361146 22.9771154392
243 1 1 4.03276987059 40.9563189024 40.653775309
244 1 1 19.3445927249 1.14288896733 37.4694413196
245 1 1 18.0073899292 37.5314212263 36.7166822103
246 1 1 13.7753342298 19.7626727189 29.5042129291
247 1 1 8.32521148231 37.9706427405 18.9367372262
248 1 1 12.0484413657 2.08743282545 47.362236987
249 1 1 18.2876739224 1.98875302452 24.4744372694
250 1 1 18.0268614693 12.8297531138 46.5574798191
251 1 1 13.3861961554 32.8969889222 27.8412134079
252 1 1 11.0876391274 37.3099576086 33.4821415791
253 1 1 13.2693158813 41.4572487169 2.34225649456
254 1 1 14.0570687749 27.5564520122 8.05936709767
255 1 1 13.984499435 44.7795257364 0.382332740398
256 1 1 14.8447181921 33.6570183615 16.9971683729
257 1 -1 31.4310895051 16.5789638128 17.7807432836
258 1 -1 43.7942240811 40.7555967779 28.1802441803
259 1 -1 32.0782048038 2.42893950637 2.58273630598
260 1 -1 36.5022207253 12.0607886433 1.40916234496
261 1 -1 42.4219270434 39.3741713525 13.756081086
262 1 -1 31.0853849765 44.5225696584 4.0577420109
263 1 -1 40.7119959577 0.637043978931 35.4849888212
264 1 -1 41.6412389024 25.3863114124 29.0015249429
265 1 -1 38.2957146785 11.755605604 10.8693527165
266 1 -1 41.1829859405 46.4002252996 27.6659967747
267 1 -1 39.0971867508 0.842409988449 4.93123043713
268 1 -1 33.7077972386 36.4348025494 4.77877895807
269 1 -1 34.4334831989 44.5129887784 31.7035585732
270 1 -1 29.9518925842 43.5019785416 43.434168596
271 1 -1 40.3784932987 46.2844151628 31.5844224301
272 1 -1 36.425005546 8.2697422688 8.54878064854
273 1 -1 43.1039821163 29.6718584382 46.4263498482
274 1 -1 38.3468243725 18.0838651882 6.99012458233
275 1 -1 33.9314737661 27.6063361979 23.669930132
276 1 -1 37.9909121255 42.2258613319 43.7275713272
277 1 -1 41.1081706544 10.1144922195 41.1610359072
278 1 -1 29.5725972326 30.9902970104 23.2878844686
279 1 -1 33.6596861619 25.0457004121 32.2314992301
280 1 -1 41.1169396317 39.4774470801 11.8176225381
281 1 -1 43.3167865833 45.3720835712 17.2326810073
282 1 -1 41.7467584251 2.82740566533 10.5350425939
283 1 -1 36.245464453 14.3974818829 0.395100195287
284 1 -1 37.6254925176 46.5934776973 42.4296624839
285 1 -1 41.3632954539 37.0454043691 29.7351102861
286 1 -1 34.443919847 28.5705707556 6.9448439608
287 1 -1 29.9040612766 14.9271764649 46.1883430908
288 1 -1 39.0518600973 33.1339152804 37.77361008
289 1 -1 28.5478264137 36.9395407078 8.47804791462
290 1 -1 43.3895368557 8.45491580095 33.6944190933
291 1 -1 41.5252751848 42.3844604678 40.7535330428
292 1 -1 37.555220626 40.5803317846 0.266191364298
293 1 -1 40.5341516183 12.7325756939 7.6730206501
294 1 -1 38.4500048636 14.4773308901 30.6923945825
295 1 -1 41.3782065052 32.262937061 15.3550942068
296 1 -1 44.0194641271 22.0613562775 29.9277249441
297 1 -1 39.9022352965 17.189685825 12.3860842003
298 1 -1 30.9138876338 34.5607571157 46.5209337665
299 1 -1 39.523020926 34.5854757479 28.6336874619
300 1 -1 39.3473831002 18.7030158137 25.5283666813
301 1 -1 27.9221256294 1.62896689327 33.1575705114
302 1 -1 32.6574834423 40.6771372871 44.3544381806
303 1 -1 31.2910279051 43.7825605089 2.17348485831
304 1 -1 34.6331236089 2.19747770874 18.0711064227
305 1 -1 39.4105214225 15.7709769294 28.020496599
306 1 -1 27.9146172332 25.9902150184 43.3627687623
307 1 -1 36.9506493659 11.5326133355 10.9933345909
308 1 -1 35.475425882 45.9227244329 36.8812862485
309 1 -1 35.3408928007 22.531971486 24.6740780766
310 1 -1 42.9672802203 32.4806587811 30.8778796065
311 1 -1 34.7056686592 24.0423363337 19.3135382521
312 1 -1 31.0996193599 29.9488864064 30.4001301315
313 1 -1 36.8670982048 36.4149802385 13.219748493
314 1 -1 31.0678878378 2.36400157971 13.6110153138
315 1 -1 43.1732333251 20.2862269213 34.732418409
316 1 -1 37.0168847123 44.2256047168 44.9173776474
317 1 -1 41.649861235 46.6802506839 0.737735962972
318 1 -1 30.1575672899 35.0795286763 19.3471553138
319 1 -1 31.6008041307 25.8792064804 0.374681865346
320 1 -1 28.9756965296 46.6473091431 15.7532471547
321 1 -1 34.5822518794 40.1354249783 22.894700335
322 1 -1 37.9519444557 26.3620350164 21.425019921
323 1 -1 28.6767567727 16.2080910047 14.0716405202
324 1 -1 36.5305240134 25.8404824831 3.94080295971
325 1 -1 28.6907884779 1.7190337977 32.6534944243
326 1 -1 35.0986676171 34.4367549206 20.7228229723
327 1 -1 39.0954608223 6.24581090472 2.23878292444
328 1 -1 43.6314671811 2.24000388671 9.34952208799
329 1 -1 36.932010423 4.73066125356 35.5500613828
330 1 -1 38.2562224606 19.6449889602 36.5752652473
331 1 -1 32.6000866485 47.426541053 43.0650529327
332 1 -1 43.6148064773 6.38737253202 28.7109732152
333 1 -1 41.5564523101 43.3671287346 16.034535083
334 1 -1 36.3866241226 38.4095175729 21.4097808469
335 1 -1 33.7086779035 44.0015964668 18.4316155186
336 1 -1 36.5674941141 33.8068533993 10.6654691338
337 1 -1 36.8657061854 1.59362916275 23.723926485
338 1 -1 38.2663469472 35.0542733861 15.3693933025
339 1 -1 35.2282467182 1.58617852772 12.0929097271
340 1 -1 40.6191613276 27.6319712299 16.1090706879
341 1 -1 33.3109568847 12.0798526384 7.5270122469
342 1 -1 36.5595766982 43.1392444084 9.31441600489
343 1 -1 36.908708069 40.6226531417 36.2132070456
344 1 -1 37.374103917 43.5187473388 13.8489200541
345 1 -1 28.2247160391 32.9991814155 38.9415733585
346 1 -1 29.5606357487 41.6387799195 3.43589084355
347 1 -1 37.2616598314 23.6406772771 24.0340264416
348 1 -1 28.9186676152 2.68387505681 27.1639546911
349 1 -1 35.135548224 44.8998360564 29.0652814077
350 1 -1 33.9549855344 43.429907936 39.172934898
351 1 -1 37.9582605852 19.863284628 23.8542788388
352 1 -1 32.8819526744 37.9915439828 36.7727895125
353 1 -1 37.6100225372 12.6211322087 9.6179155135
354 1 -1 27.9361461412 1.45647355152 16.9294159906
355 1 -1 29.7815882611 34.8987620818 0.89451159825
356 1 -1 36.2093432776 45.015279513 31.1570844613
357 1 -1 39.0765285417 42.7536177356 10.5303117312
358 1 -1 32.0673787651 32.1062704912 7.92036427492
359 1 -1 27.9300504555 29.5727004835 19.3539484859
360 1 -1 38.4566749918 37.9186516962 34.2911223397
361 1 -1 37.5200603377 30.0683538475 17.0097650357
362 1 -1 30.1220136828 22.7824832589 46.5110984086
363 1 -1 42.1327935387 25.3193613526 7.81257323227
364 1 -1 30.6942182708 29.1983336952 40.0512588231
365 1 -1 28.8866939036 26.3237260085 13.7726964709
366 1 -1 37.2124455409 27.0857552017 37.7584327635
367 1 -1 31.4376072325 21.7444390384 23.1622566071
368 1 -1 40.9320538738 1.83193379994 16.3635868591
369 1 -1 31.4969555399 18.2570812182 24.8839370522
370 1 -1 31.3764754212 0.522981039813 26.953618705
371 1 -1 35.7595053633 23.9938591506 21.4855137895
372 1 -1 37.1331428793 19.4391073813 32.3325655186
373 1 -1 28.3372075507 42.6153770798 14.1507858183
374 1 -1 37.6459862569 1.64749129179 23.2432277677
375 1 -1 41.8329835741 13.5927677315 34.8829029121
376 1 -1 42.2071169984 33.4689851002 34.2628487938
377 1 -1 39.3228809725 28.7593163264 22.9940348583
378 1 -1 41.2700677697 25.5092578722 1.90505345251
379 1 -1 33.3352189884 28.0436141953 13.4192241895
380 1 -1 38.8713890925 27.6934093449 11.6459965311
381 1 -1 41.438696543 33.8844116242 32.7470210699
382 1 -1 43.9578510256 7.52578633943 16.9778208582
383 1 -1 32.808155266 26.4919985969 46.6331228894
384 1 -1 32.2855424246 0.729491513515 29.8944227346
385 1 -1 33.4585851055 33.734334684 14.0167253566
386 1 -1 39.0007004555 1.32567700763 6.77057197603
387 1 -1 31.3037272759 15.3817501853 4.3089773997
388 1 -1 37.3479520527 14.9938150564 4.57560412614
389 1 -1 29.3755238905 34.03011942 1.96770216253
390 1 -1 42.8296844844 47.0565800471 4.03891171189
391 1 -1 27.9801458543 38.3887305527 18.0958440388
392 1 -1 43.4204354868 9.78698975734 37.4406027708
393 1 -1 42.8165750926 17.3306752144 16.8433406359
394 1 -1 36.7291056014 44.025789301 13.5657041099
395 1 -1 32.3582145849 27.207428082 36.4259037181
396 1 -1 36.7109219907 4.40984023726 42.8581470151
397 1 -1 30.3353099313 44.9830376325 47.4278768914
398 1 -1 41.9725241225 41.1942092336 26.5092887401
399 1 -1 35.2302649466 20.1115194085 28.0653008256
400 1 -1 34.2028774598 28.8484600534 22.2225705266
401 1 -1 42.3591356579 6.67487529051 13.1627511802
402 1 -1 41.5139007835 38.2037469177 17.4559162619
403 1 -1 35.9088192692 1.85414674587 3.42059752923
404 1 -1 41.8993346436 14.1764512624 45.006752561
405 1 -1 42.9176856418 24.8257775655 6.40356610045
406 1 -1 39.6263166354 35.0884688593 9.73988914979
407 1 -1 42.5021888146 33.5098239587 8.88826780818
408 1 -1 35.4114761139 37.2190997551 5.93964166872
409 1 -1 30.5582769767 19.5624769805 4.23731603794
410 1 -1 42.1201362135 15.5881643752 33.092138674
411 1 -1 42.8817235004 20.8469131385 43.541060721
412 1 -1 37.9339898328 1.76414028522 40.1620380252
413 1 -1 39.9431045504 24.1303634298 0.313435050727
414 1 -1 39.6684538412 41.0134738436 40.4865536954
415 1 -1 31.8547546187 47.0772420259 44.0674005413
416 1 -1 38.3266248304 47.4252160732 47.8301636937
417 1 -1 42.5714809617 12.9628884974 6.60315530997
418 1 -1 37.8855672622 3.52161784293 14.3823032871
419 1 -1 43.086775647 20.0003779339 8.74158840638
420 1 -1 44.0851472941 12.8134299607 13.7563142486
421 1 -1 33.7138065377 41.8169904872 25.5234847307
422 1 -1 41.7751616632 31.5816796584 31.1145212353
423 1 -1 36.7358018002 10.9731164709 32.5711565409
424 1 -1 37.3991020855 9.4313536877 47.1646764735
425 1 -1 39.2925120699 41.3526750929 15.7976732436
426 1 -1 32.6789668847 35.3582265692 42.1626125509
427 1 -1 28.3836219232 5.08715363099 11.3448885305
428 1 -1 32.4538236363 28.7764595725 12.3617671831
429 1 -1 31.1478103916 9.93609188532 32.9611079406
430 1 -1 37.3740080747 27.080653152 35.5437530914
431 1 -1 30.3907380181 15.9974026888 33.1493965486
432 1 -1 29.8954176646 15.7704667357 43.9837383101
433 1 -1 34.9594257815 35.6325259473 24.1190395436
434 1 -1 32.7670676029 12.9366852464 14.4125143646
435 1 -1 36.6195711455 41.8154085875 22.2280882415
436 1 -1 38.3250633695 19.2450710743 8.79597355553
437 1 -1 35.3545200934 36.3784662926 43.6608984105
438 1 -1 40.2950378513 35.7551503875 29.9981115014
439 1 -1 34.5848643966 36.5917334084 33.734150938
440 1 -1 39.6754371207 33.6567613253 9.87979082214
441 1 -1 43.8177917256 28.1612359397 37.2497220899
442 1 -1 31.3418666305 41.1625717479 37.8462834779
443 1 -1 29.5703548797 12.5402389035 15.5809326012
444 1 -1 41.255616285 40.0534136275 14.7410100388
445 1 -1 35.1525058908 17.6335941711 33.4374028048
446 1 -1 34.1552466824 32.3667502428 24.6864468445
447 1 -1 39.121599059 19.0542823517 0.0481933565616
448 1 -1 33.6461135245 42.7415809379 38.9954662609
449 1 -1 35.6520309376 45.9748499308 45.6494544464
450 1 -1 35.2285563962 29.0007344691 40.1957943739
451 1 -1 39.0514777122 7.16932339523 9.17403522282
452 1 -1 35.6308667192 20.2978055072 17.4143453683
453 1 -1 39.2747009898 35.9147159845 39.4952397373
454 1 -1 42.5672656453 9.86159193897 2.56426849932
455 1 -1 33.3287203928 27.1752093927 23.0213349442
456 1 -1 41.0955762515 29.9788368194 47.2203529435
457 1 -1 30.8788947694 7.09338038952 28.2048853109
458 1 -1 28.7038875211 12.779606421 2.88441289175
459 1 -1 42.2322983623 18.5953135641 35.2931189811
460 1 -1 28.5242820402 30.1179862308 10.9562710785
461 1 -1 38.9404479821 5.11519307494 21.743478142
462 1 -1 40.4350253178 18.353715369 12.0898915592
463 1 -1 33.0829685674 15.4593241665 3.8793589671
464 1 -1 36.575611879 21.1872041577 20.2793138165
465 1 -1 33.4854152347 8.6385011184 25.3921877961
466 1 -1 28.8256957131 10.0788263596 47.8230704559
467 1 -1 41.9728654306 15.6339226949 46.2980633212
468 1 -1 38.6779013789 35.3197928917 19.8686403969
469 1 -1 35.8435546139 31.2757706022 30.1743193388
470 1 -1 34.9787614433 39.1192811202 23.6352886319
471 1 -1 38.7675285209 33.6305684659 25.7693790105
472 1 -1 37.9815173363 39.6741964453 5.57905743873
473 1 -1 30.43600495 26.4432283892 16.3583817591
474 1 -1 39.9797372424 10.7414606186 12.9501087665
475 1 -1 30.4066766549 12.9447702844 43.1597408122
476 1 -1 32.4423928883 14.787829188 2.23735028178
477 1 -1 34.8674751171 37.6317110815 13.4828386027
478 1 -1 32.1296988261 31.8050874027 47.3833339066
479 1 -1 29.8764274037 39.2863007288 41.6594579639
480 1 -1 43.9700029661 1.44685458954 15.6184812344
481 1 -1 42.905421464 17.2049569295 13.0402960037
482 1 -1 40.8906546215 4.01092836352 34.1918728345
483 1 -1 29.2172474803 2.73262775535 25.7744473996
484 1 -1 42.3576100648 16.0619540482 16.3299804033
485 1 -1 28.7326209402 23.7440004133 46.0806738568
486 1 -1 29.5876672043 38.8038610002 45.3604193891
487 1 -1 39.3218291384 34.8754761209 13.3371586354
488 1 -1 38.806543817 20.1009928035 20.9872324772
489 1 -1 42.8368017551 38.0577691116 35.6303817059
490 1 -1 29.5439950621 40.3269791464 4.43417089357
491 1 -1 38.5718502752 7.37808257566 14.8149715928
492 1 -1 34.8887146133 37.9225508866 18.3743871235
493 1 -1 29.7087738931 16.0475818764 29.981385699
494 1 -1 37.5825626301 7.16964500293 39.3334222503
495 1 -1 34.3556512216 35.1808289454 25.6497114363
496 1 -1 38.425991753 42.5213958246 28.5290906418
497 1 -1 29.8755694334 22.5422839798 33.9133269914
498 1 -1 43.2225205449 25.4135211399 34.8783406169
499 1 -1 41.3473135236 15.90169791 32.9599622553
500 1 -1 36.3670539394 17.7714383962 47.8720446384
501 1 -1 34.3185428081 22.1417196207 23.3661405901
502 1 -1 37.7730497552 11.3189501703 38.8620825087
503 1 -1 42.7866785462 11.6600925903 41.2515786218
504 1 -1 35.1435110386 2.56785485276 18.1359624821
505 1 -1 28.0931800813 32.4724684842 29.6028034147
506 1 -1 38.3177818298 4.6756268509 1.43457896563
507 1 -1 34.1433322471 6.3522439498 15.6342110536
508 1 -1 38.1531685303 32.7398692769 34.1718730165
509 1 -1 29.7525421405 12.9352156934 22.6664342508
510 1 -1 36.3227767371 23.9306176846 38.1167304318
511 1 -1 33.9322823138 35.219184253 36.2403784712
512 1 -1 36.0274645275 39.8498834318 20.0355965716
