LAMMPS charge data generated for ESP error-estimate validation

512 atoms
1 atom types

0.0 48 xlo xhi
0.0 48 ylo yhi
0.0 48 zlo zhi

Masses

1 1.0

Atoms # charge

1 1 1 9.03035147551 10.5927259089 45.504922007
2 1 -1 18.4956767466 23.9957929057 4.61007861723
3 1 -1 32.0135431881 31.4613286654 16.1004979733
4 1 -1 1.29219542094 6.86359071724 38.136754852
5 1 -1 32.1411624257 21.3400345264 43.1491395904
6 1 1 4.36235321624 28.7138675626 30.0673949492
7 1 1 27.0969728874 37.2520102688 19.9541887259
8 1 -1 35.8112344834 40.8315428028 19.2471530612
9 1 1 45.7903390167 12.0538124523 39.8258045762
10 1 -1 11.9739253481 2.05041723804 17.59800699
11 1 1 27.6996543372 10.5712489554 5.41063952936
12 1 1 25.7893530882 47.327640995 20.1475664168
13 1 1 3.70667735116 45.9949328896 20.6967233069
14 1 1 44.5107905449 10.4974996785 19.5878741439
15 1 1 26.3833153946 8.30474937743 26.9336080101
16 1 -1 46.4833377131 25.6860813439 8.46009189079
17 1 1 33.9902627443 6.97834593554 14.222697716
18 1 -1 1.04261951342 21.1183634022 20.8188968178
19 1 1 25.9779813657 46.538749461 8.85852809396
20 1 -1 24.847379368 34.1637342229 45.0050381075
21 1 1 6.09812232832 36.8715481466 47.6604472878
22 1 1 12.2759773784 43.9920032123 38.3844756577
23 1 1 39.6927508298 11.6159105981 9.19039389456
24 1 -1 10.1826149972 24.8381776356 3.91823646514
25 1 -1 4.93182006045 18.123334746 38.4016896379
26 1 1 0.477453417592 35.2545645433 46.42259881
27 1 -1 42.5400917941 19.0040449571 9.26798677264
28 1 1 16.0916019408 1.58681387756 11.4791317105
29 1 -1 7.23988169352 29.872460766 30.5355357956
30 1 -1 7.40656945673 6.66368140641 45.3410217599
31 1 1 0.273956398357 47.8695288893 45.6690994436
32 1 -1 28.0273483499 28.9054421042 2.51345683897
33 1 1 40.2654996608 33.7124746208 18.2133746446
34 1 1 30.0188494123 42.1330224596 38.3600852243
35 1 -1 37.4133563715 9.07649305874 3.90715595273
36 1 -1 8.52185824719 14.7747589945 7.77064217729
37 1 1 9.35420252554 34.3980888115 19.350009471
38 1 -1 25.9516710266 23.2052832489 44.6530736893
39 1 1 14.7290373038 9.1206577188 45.1722669741
40 1 1 7.17197049618 2.37957254731 23.1857912047
41 1 -1 31.9178675617 17.4305638589 20.2969329892
42 1 1 19.3702793132 18.2613342568 6.84199311623
43 1 -1 41.7122266962 13.5282254099 26.1195348002
44 1 -1 44.5208847809 7.437480355 23.7873895135
45 1 1 42.0760236747 45.6281051414 46.5907047595
46 1 1 3.82399562311 21.8273623129 6.72324942119
47 1 -1 41.2030743579 5.45362147227 29.8790373529
48 1 1 2.83177216847 31.054500197 46.5767271095
49 1 1 30.9150886214 20.4707879635 10.1270568275
50 1 1 46.3590928763 7.27523364625 38.6843745042
51 1 1 43.0863603958 45.7241987133 1.57871298615
52 1 1 0.318868664789 23.6464547209 43.7027981497
53 1 -1 36.3401751192 33.4124369715 19.5239107641
54 1 -1 41.5556231114 9.74013336821 14.1229099079
55 1 -1 25.7101106672 8.03156463579 3.38535134354
56 1 -1 31.325731873 5.61837563798 40.7824107987
57 1 -1 28.7784301259 23.4633404624 33.6172849874
58 1 -1 37.6493285758 25.1753447092 30.1262803081
59 1 1 46.2207118116 40.0987260764 41.3952041116
60 1 1 16.1157686347 28.3926697404 14.4427461688
61 1 -1 5.5386569865 36.0998071771 16.9150749664
62 1 1 9.7917565267 3.94811078299 11.0239053451
63 1 -1 20.1338577256 2.9350580125 37.4412859366
64 1 -1 2.13047987465 37.3166077301 24.1147232018
65 1 -1 8.33580895663 40.6570620147 18.950592971
66 1 1 29.5280977774 4.80457558514 29.0390961596
67 1 -1 41.1263953963 34.8247323099 11.3210356483
68 1 -1 4.48203524098 34.2794102324 28.6923958763
69 1 1 2.51899899197 6.88545548994 19.3496110149
70 1 1 5.82614843918 24.4337339321 1.38083394549
71 1 1 33.9982586857 41.1961430179 36.1411313586
72 1 -1 8.90437522436 46.4726110386 41.3474492066
73 1 1 44.1319818047 6.12590331892 34.7818891426
74 1 1 14.7852479438 16.0475286961 44.3114592803
75 1 -1 44.4631813845 5.46879487716 16.9350359344
76 1 1 1.0976815966 15.2576150646 13.0660991798
77 1 1 38.1609618566 33.8469005757 2.67621520397
78 1 -1 19.6260607629 44.517739479 1.71962618436
79 1 -1 0.0868487571664 30.8707472959 10.4667683143
80 1 -1 15.9552518552 25.6640606682 14.938428493
81 1 1 20.3604862377 23.4990891522 45.4929594844
82 1 1 19.3487006171 30.8893150611 19.1396905811
83 1 -1 13.9705867702 12.6454203318 4.18410349587
84 1 -1 18.916690358 23.8241271779 22.1959019394
85 1 1 34.7846898349 25.0367981648 45.5674341193
86 1 -1 32.4808073442 39.9982452764 13.2099810648
87 1 1 1.22168218637 34.9206226645 30.1230877355
88 1 -1 25.4008285018 8.66258434386 37.5580407423
89 1 -1 28.803752026 9.21922534381 7.95728314443
90 1 1 18.0679083155 45.0044513634 4.84305434646
91 1 -1 5.66902868478 13.4673092896 37.0883824883
92 1 1 4.53435017004 30.9777389426 16.6991969278
93 1 -1 16.8092899391 18.2812919681 2.77328370032
94 1 1 43.3790687974 42.132622931 27.985950261
95 1 1 28.916380654 43.3528716469 46.1814193544
96 1 1 14.0658367023 10.0712667126 42.916735181
97 1 -1 14.6696366033 42.3407243332 38.9072455804
98 1 -1 1.70148277304 44.9965797189 18.048218295
99 1 -1 30.9574428054 13.1045583077 1.04676453866
100 1 1 19.7341925875 1.9073139386 13.1690353124
101 1 1 2.44307610934 36.4061520915 6.47881338991
102 1 -1 30.6710581121 9.09258275044 33.7811264197
103 1 1 10.754908929 9.43050462701 16.2740838603
104 1 -1 43.4321507719 29.7659618906 11.2094149804
105 1 1 42.8837242884 24.599195251 45.212355518
106 1 1 21.4083928711 4.59098037333 13.940797977
107 1 1 42.1541840887 28.4094533739 18.1728145348
108 1 -1 24.5478696467 12.5782568075 9.80752545234
109 1 -1 8.61272808545 19.8321147784 41.8644672039
110 1 -1 36.6350980138 33.5700625203 3.81797343074
111 1 -1 19.7935532153 0.883867080817 45.3263183157
112 1 1 16.0737071143 8.24842046197 47.8461673366
113 1 1 5.64038481801 40.4629674115 18.2147997668
114 1 1 23.1503094638 31.7331742789 29.694756079
115 1 -1 47.6106522488 18.6266350751 0.489597623065
116 1 1 9.86499175201 41.7705780158 21.7327482511
117 1 1 12.0822738307 19.1572180236 22.3303278509
118 1 -1 29.1499472669 32.7951112554 7.72175301931
119 1 -1 24.7532641565 13.5117911153 9.59935233158
120 1 -1 22.2110745918 36.5844856201 22.1347536308
121 1 -1 40.7346239919 41.9751478778 37.6465397377
122 1 -1 26.609828487 43.998712525 0.51142812936
123 1 1 42.6877307912 42.3070576595 0.117332888542
124 1 -1 12.5334223469 40.0881978375 25.6868706783
125 1 1 38.2042745356 43.841815783 44.0599671212
126 1 1 31.2703197642 21.246268564 45.6583286937
127 1 1 19.128513852 34.3385249234 8.26735266718
128 1 -1 46.0256370851 35.8021505861 34.3004616781
129 1 1 8.66516956985 31.8427562042 35.1211839043
130 1 1 28.0328450926 12.5588157347 33.1933876252
131 1 1 40.6277942488 14.6885146767 38.918759815
132 1 1 46.3602457325 43.397835677 3.41893166526
133 1 -1 31.5922753581 41.4002571892 2.72999339108
134 1 -1 7.78375808301 42.6364149698 19.0352422895
135 1 -1 45.3949043 34.6608304322 37.2704519226
136 1 -1 16.7815278582 21.3444051264 23.6482837697
137 1 -1 45.6312185679 9.11224269495 19.0946058124
138 1 -1 37.4205426365 17.9339298279 3.45295154363
139 1 -1 25.2362919543 12.9450325799 41.9719664779
140 1 1 47.4535575018 16.9497221214 28.3703167528
141 1 1 44.8655760105 13.0667530645 46.6924950483
142 1 1 4.83436444573 0.8124722818 3.26849654902
143 1 1 29.8827211103 3.16805669541 25.5996010988
144 1 -1 1.30628300395 39.2992962297 34.7822182835
145 1 1 14.8488402559 11.1748210149 24.2500789096
146 1 1 7.18566929354 4.88119694411 46.8608578075
147 1 -1 35.5598870036 31.4700497703 32.4171716132
148 1 -1 4.2186588683 27.252625245 13.942920087
149 1 -1 16.2816547464 45.2910379365 29.0723370918
150 1 1 18.2287408089 31.1096041263 7.87061001601
151 1 -1 45.4160046945 7.1287886867 13.2016994373
152 1 1 26.2274638102 27.5005901785 25.982417958
153 1 -1 45.3053161308 37.2322754324 34.5033083564
154 1 -1 44.9509449474 5.427286107 35.1943091228
155 1 1 9.74450381069 0.957797084738 3.69047594334
156 1 1 8.53091716188 30.5313402753 0.116113162215
157 1 -1 24.7997433276 34.0714782536 25.7662705999
158 1 -1 25.1973213064 6.45873475619 6.41043740198
159 1 1 21.0083099461 7.58193848349 18.3737559718
160 1 1 34.6313038136 43.8356699135 24.2812205841
161 1 1 24.0837766872 8.00341302793 16.4081799043
162 1 1 4.36088201556 33.0707195482 5.20023982066
163 1 -1 12.2670417462 36.8614582159 0.487434084257
164 1 -1 2.29058187934 29.2209738468 42.8720862411
165 1 1 21.7063781856 26.6986057208 34.1656594547
166 1 -1 2.94995403499 32.0472953683 15.1065753926
167 1 -1 5.37075202724 21.3443456611 44.9426886547
168 1 1 27.1721525195 12.7947408955 37.9181175916
169 1 1 35.9309546628 42.8790592151 15.4007350887
170 1 -1 7.31677707983 28.8766970072 25.0581595549
171 1 -1 15.1962784531 21.554587973 45.8267575593
172 1 1 17.623740454 20.989759226 47.8378905401
173 1 -1 43.6848529463 29.9127449354 29.340588987
174 1 -1 21.0132438812 15.0035168957 5.99391972439
175 1 1 1.08353523085 32.482479677 39.483737183
176 1 -1 23.985525948 21.1995721077 3.43986874736
177 1 -1 32.0877984085 5.42296582694 40.1223530261
178 1 -1 42.1180513268 22.7683034359 17.7291701879
179 1 1 5.03078148888 42.9393046684 18.395217821
180 1 -1 6.3993683533 37.5669328059 41.3543586456
181 1 -1 16.4447759368 3.60948484829 28.238397667
182 1 -1 37.7701411323 28.2505816517 34.2333424294
183 1 1 33.1968009764 43.8513068566 26.3872632015
184 1 1 41.3374166969 4.87157753761 31.9338543007
185 1 1 5.57869059767 22.5865826692 6.49163563
186 1 -1 2.64125003879 32.2359261281 36.0748176804
187 1 1 32.629003566 3.3701652344 4.3232449999
188 1 1 19.6568247184 40.3298753937 46.5358748707
189 1 -1 17.8201185062 44.1470305118 19.1363285475
190 1 1 29.2607251978 31.5925423216 22.9581748097
191 1 -1 45.171399359 0.390703647271 22.0318132045
192 1 1 17.4871271174 2.53383686621 46.2355799029
193 1 -1 38.9787775997 31.2118411384 7.29776106185
194 1 -1 35.2099755667 25.7821833919 3.73566113646
195 1 -1 4.99207813159 20.9850674105 4.83240103215
196 1 -1 12.2663916889 42.7711568841 32.0288693308
197 1 -1 20.6176974168 1.74847670493 23.2803594377
198 1 -1 32.2008141701 16.0462617475 12.9380122983
199 1 -1 34.2043855364 21.5500088666 41.389920885
200 1 1 39.1950547755 23.1014443868 42.4929310985
201 1 -1 15.4348832043 15.6878498247 47.0120921454
202 1 -1 10.1192001892 42.6185450795 12.8366715078
203 1 1 4.03565885769 20.7833488605 7.48661366793
204 1 -1 47.0887024359 14.1574105265 3.05466938476
205 1 1 21.8797228036 14.8280982768 21.1833766044
206 1 1 5.4324877295 7.96250503335 14.7698978143
207 1 -1 21.5087299865 6.10698319949 45.9781299838
208 1 1 25.4419946008 27.5736827638 33.44124241
209 1 1 28.3634210767 17.4550813086 5.78467046387
210 1 1 1.40066358374 28.9675182189 34.7808430691
211 1 1 10.8795039637 9.26315787708 26.2553901879
212 1 1 7.79966417626 2.67008439187 10.039059501
213 1 -1 22.9595819552 18.192948723 28.9001359678
214 1 1 7.23253619528 28.0255930613 19.8622236373
215 1 1 2.30991461763 25.0702256303 28.3730223563
216 1 -1 7.79094781257 39.8882543798 35.2622274878
217 1 -1 19.9062375252 16.2549985509 20.9262666189
218 1 -1 2.06830153333 5.49774795792 25.5894658476
219 1 -1 40.7678930598 35.5588893697 45.793173407
220 1 -1 40.8245587796 31.7049687315 46.1309455519
221 1 -1 29.9620861054 8.71758155409 46.3436269161
222 1 -1 12.0801069281 29.3796680608 37.7459533671
223 1 1 12.245573327 17.5397010787 46.0164503686
224 1 1 40.4258293074 29.447179558 42.3541594607
225 1 1 16.2389130862 5.18480694605 26.488081335
226 1 -1 32.2846174123 37.3109071654 8.67988686451
227 1 -1 46.1377932089 29.9781908858 37.8105711989
228 1 1 22.602683831 26.8167918636 41.5573788564
229 1 1 19.3318820937 23.0108123571 8.83526279716
230 1 1 7.99543118158 19.7067238942 20.6488903103
231 1 -1 0.329276302134 34.9282538283 43.1378998641
232 1 -1 43.2890482928 40.0734123851 10.415385377
233 1 -1 27.8220556883 18.5323919205 8.85438535165
234 1 1 37.8707358492 27.3562012795 41.8646223831
235 1 1 39.2591089933 26.0612250976 15.9167854649
236 1 1 22.3288175263 25.4407350259 2.54551003453
237 1 -1 15.6041871523 37.2620100158 21.091814974
238 1 1 3.88177905589 44.8680212952 35.5674626334
239 1 -1 27.337314739 36.1941044599 41.6247792873
240 1 -1 30.2611018661 25.3863033621 7.48721422582
241 1 -1 16.895076135 8.61850202932 38.0684819021
242 1 -1 13.2248912496 22.858403749 27.3871343952
243 1 1 20.7386485808 13.6339104386 2.04138295289
244 1 1 41.862999265 0.902423341934 10.129691751
245 1 1 23.9737896959 11.2834638204 45.9938977162
246 1 1 34.9443475304 23.4450477083 20.621804547
247 1 -1 46.151113669 16.353447377 15.0681823697
248 1 1 28.4568663417 26.3106031632 40.4727664215
249 1 -1 8.1837760797 5.08764531285 4.87090350536
250 1 -1 31.1918830072 24.1085390607 25.1972339684
251 1 -1 19.0189389648 19.9031368816 46.9835043619
252 1 1 34.6767979183 45.09875589 20.8793516441
253 1 1 29.925429303 28.1352738038 26.4132967523
254 1 1 43.5843025303 42.7293962438 7.32168626432
255 1 1 16.8633605437 24.3977271392 0.773502097325
256 1 -1 18.0121850235 24.9236739134 35.1972051016
257 1 1 14.8858467351 36.756204545 14.0704612858
258 1 1 24.2522326695 6.30035020139 29.6579033865
259 1 -1 21.1290441056 40.7793660866 11.3131513041
260 1 -1 20.9101570751 46.3331049165 9.9822347589
261 1 1 31.9070866745 4.84626957568 33.3825375286
262 1 1 19.8920915 16.7787608064 32.0390854503
263 1 1 14.3330176688 12.2925220064 22.3486396075
264 1 1 12.6689872464 15.5170678726 10.4754576781
265 1 1 23.4465413798 22.2854333843 31.4294056175
266 1 1 42.7993890255 41.5632716364 25.5516253359
267 1 1 33.0415734073 35.5258643694 34.498894612
268 1 -1 10.3584735436 15.4417058272 41.8850659287
269 1 1 28.3301580877 5.71060146186 43.5654041985
270 1 1 37.9043823615 31.6924765815 27.812918249
271 1 1 20.2279340058 44.4902819481 23.4272902002
272 1 1 18.9502741706 35.22216355 46.8365069641
273 1 1 27.2218747251 22.563364684 0.409487783093
274 1 -1 41.3750174449 2.07910191697 19.6570007383
275 1 -1 44.7033927099 3.6036020114 28.7935358869
276 1 -1 4.95638711047 25.0590006053 9.94982260473
277 1 -1 31.4988334759 4.57707345058 25.4205504624
278 1 1 10.2020726121 37.7354092362 16.9003648948
279 1 1 12.8211522858 34.1797440319 44.7135227234
280 1 1 33.3864168655 20.9924590736 47.6618375917
281 1 1 28.7609490686 13.8934618846 45.9470155594
282 1 -1 41.1321547072 6.52579035137 10.7745181157
283 1 1 30.5368809054 3.83340508713 37.0993297383
284 1 -1 14.6920851024 18.9520810377 20.1007556704
285 1 -1 41.7443296646 13.5210261523 31.299961859
286 1 -1 13.9026698873 11.497704997 13.3548312872
287 1 1 40.1381989302 30.1883507206 1.34172505741
288 1 1 15.4042731867 21.2919186063 15.0692820673
289 1 1 31.5535401766 18.4305808574 37.9819166087
290 1 -1 11.8018192413 13.3132386599 20.6619222115
291 1 -1 47.8631340642 32.0651046117 18.3548998061
292 1 1 6.30945590389 5.68332826743 5.22311283645
293 1 1 20.4646310295 6.49064274903 43.266937728
294 1 1 29.521010439 29.8337349754 43.3592718653
295 1 -1 47.5299385158 20.4367828416 32.7359920466
296 1 1 26.6818190366 41.7331113712 3.20062978542
297 1 1 40.0448716771 29.8605931259 6.16331240461
298 1 -1 0.556216173154 45.1153662507 13.5443750486
299 1 -1 28.449607698 43.2770425818 6.04588010054
300 1 -1 35.7788572374 22.5441998215 18.7480178328
301 1 -1 35.9502186142 19.4966696431 29.5949385576
302 1 1 6.38156250412 6.32017732408 1.16408425015
303 1 -1 27.288693373 28.6871641364 26.5898429582
304 1 -1 0.594438954031 40.8649798441 30.5519904296
305 1 -1 16.9260476733 3.63853339444 41.1830481485
306 1 -1 0.460451502641 1.72641709885 46.2406637693
307 1 -1 40.4287476999 27.6061656419 44.9237029531
308 1 -1 32.5889436428 32.5717360865 5.75768006743
309 1 1 33.790976952 23.6535994639 10.5748910589
310 1 1 44.4005947057 28.1727355395 47.2293175833
311 1 -1 9.579068815 5.33997376321 8.10757316822
312 1 -1 34.6362955825 20.9862889247 12.5198625376
313 1 1 3.93398182042 47.9477113821 7.79927284772
314 1 1 41.67376873 29.5681024435 16.4291934847
315 1 -1 14.740140806 46.8330719837 14.0606730084
316 1 -1 11.5706584517 14.0963147639 32.2276991923
317 1 -1 7.30937009611 35.2101333083 6.82609733982
318 1 1 14.3370622344 35.4409375612 34.1476607125
319 1 -1 4.6816394542 12.5200926053 28.9797774644
320 1 1 14.0124501079 16.6945234455 33.5960268099
321 1 1 10.1484054632 44.2310376997 15.3741890969
322 1 -1 14.0350606409 5.077098255 26.7723874367
323 1 -1 2.66790074374 42.6017908163 39.2986981788
324 1 1 30.0240762171 42.0729247894 46.5543196713
325 1 -1 12.8924054523 20.6819421765 31.6961665355
326 1 -1 8.21685973954 5.37417873389 12.5699914101
327 1 -1 27.3737872484 39.1103943744 31.7900972583
328 1 1 47.4317069528 0.295352698203 27.9230089805
329 1 -1 5.88168483139 16.1746546637 34.3890969983
330 1 -1 42.462264086 25.7557556116 5.27506290876
331 1 -1 8.05550860643 10.5439821211 21.8093158032
332 1 1 35.0596676772 19.4345295341 41.9797834862
333 1 1 19.0030064669 41.9235033132 35.9276053455
334 1 -1 31.3180990412 28.7304193176 29.0569651675
335 1 1 34.7597344128 10.9559369852 25.8678270097
336 1 -1 37.1257584034 7.59275189102 39.0803255111
337 1 -1 12.7863621655 17.6108416083 2.26776657466
338 1 -1 44.0801193811 36.266112996 18.3521793933
339 1 -1 9.68671692639 28.117610965 27.2349309736
340 1 -1 18.084480995 16.8576092035 35.9057274455
341 1 -1 19.0711990761 32.0265136173 37.6962265542
342 1 -1 17.8800440546 6.84470804369 43.8252140971
343 1 1 7.21251028592 46.5241996382 5.67635225839
344 1 1 3.24504608755 34.0830340104 15.1685129776
345 1 1 4.72140091315 15.2237832036 29.3764537475
346 1 -1 26.7736247859 15.3433639223 29.0035485803
347 1 -1 37.0532861608 11.0349995473 14.0579317095
348 1 -1 4.82451757072 7.18542094404 27.2711178535
349 1 -1 42.0556188657 19.9039140076 37.0741700663
350 1 -1 40.1294019296 3.18778159405 9.8618800205
351 1 1 3.32416499798 8.99440456332 17.3050836334
352 1 -1 2.95268105141 45.7614733013 29.3736238567
353 1 1 46.6311483477 35.0665791846 43.8311576821
354 1 -1 23.9412919235 36.3072454141 5.06553866432
355 1 1 42.9761319755 23.7064243252 20.6653477575
356 1 -1 41.340202713 0.425994621327 4.16660691752
357 1 1 25.5974594357 28.9864654321 10.1408460996
358 1 1 35.0675886666 9.21063450057 6.8959699403
359 1 -1 36.1174573287 38.2353889801 9.68122255896
360 1 1 15.9054142404 43.6405765479 29.9503991256
361 1 1 24.7326688528 43.3531840401 46.9844229864
362 1 -1 27.638524527 2.87967448689 47.198927411
363 1 -1 17.296297869 34.5182698102 9.01380541064
364 1 -1 22.5265790317 32.6082395184 44.579209622
365 1 1 21.3728445108 14.1992100199 19.036601564
366 1 1 24.5856899494 14.4199082148 46.0547994314
367 1 1 6.98902304217 40.4920995202 43.4498214187
368 1 1 32.6133066624 13.4111838226 37.2643079211
369 1 -1 39.7108172427 36.5260079164 36.8533220076
370 1 1 27.7940248606 13.4525348527 13.6640445264
371 1 -1 38.995935579 2.35731002946 42.9038218444
372 1 1 7.31405670925 4.73132688371 33.6110676572
373 1 1 18.5574078212 0.938113768476 7.16769424962
374 1 1 9.61042116077 38.3842387623 29.3268072838
375 1 -1 13.2579271613 29.0998331908 1.07957730682
376 1 1 40.8905023796 4.57395354876 47.8642591196
377 1 1 34.4138103312 28.1117358655 27.9609224596
378 1 1 6.83602848404 2.06376046951 3.87300341513
379 1 1 13.1135590415 39.8447006922 43.1516872507
380 1 -1 2.43839428134 17.3433140239 15.6166931452
381 1 1 44.5757800226 30.5998085886 26.405856016
382 1 -1 29.2876581031 45.0121084181 33.8397081986
383 1 -1 38.5937298735 22.9207521242 23.8997581676
384 1 1 21.0839732715 25.2908275684 16.7973133009
385 1 1 27.4194504966 39.9985754966 10.8469603447
386 1 1 27.5768989144 17.0452552229 25.973049074
387 1 1 25.1655662544 40.9253586553 20.3511899684
388 1 1 42.3027771811 25.8747504692 17.5362580601
389 1 1 5.1230723696 6.57202015802 41.42576373
390 1 1 21.6375077976 17.1701159723 7.12483512876
391 1 -1 42.1932713808 47.4768301855 32.8506974511
392 1 1 15.3218660966 7.72703938006 11.8687865664
393 1 -1 28.7771290718 36.5766531375 43.5629154547
394 1 1 18.923701422 34.8535557062 24.0886259521
395 1 1 6.6130774649 43.8823124787 1.93009863753
396 1 1 15.5772791647 32.908404618 8.09233080448
397 1 -1 27.1649819052 15.5038701706 24.9477617904
398 1 1 41.394693209 12.9161735614 8.13962868702
399 1 -1 47.206727937 27.9649174546 25.2919748541
400 1 -1 31.8471361132 11.8351450813 22.1769685918
401 1 -1 14.7580005067 2.21669861031 13.9532158706
402 1 -1 8.23525242603 44.4778711037 1.12010804002
403 1 -1 7.79565399844 38.1329041298 37.2703065536
404 1 1 40.3417999152 41.3953457783 27.7484063914
405 1 1 46.318292527 2.32450305253 11.3111439197
406 1 1 44.4592112956 42.3970658213 25.4033567353
407 1 -1 12.9839709786 11.25760975 16.8649909249
408 1 1 13.533567077 23.2700201094 16.0776613851
409 1 -1 29.6667760003 15.3501777452 7.83655920064
410 1 1 11.0975251585 25.5618844661 9.43938822196
411 1 1 25.8883582461 28.9550409779 22.9065326448
412 1 1 44.1512401487 16.3476231839 21.1173680529
413 1 -1 8.49472990855 40.6517279814 18.5911721038
414 1 1 24.4598188053 3.37894545824 41.7969804443
415 1 1 6.02752608986 38.1831864012 34.8111676843
416 1 -1 17.5814938331 6.34879803148 41.7036249445
417 1 1 41.8676265827 23.2117801585 16.8469287835
418 1 -1 9.2378927197 44.6820322681 6.3134388764
419 1 1 4.75058002385 26.2814835895 16.4903161685
420 1 -1 10.8203700649 38.0030468483 37.3139057663
421 1 -1 45.4972847937 43.9050278592 2.08442687112
422 1 -1 19.2788159223 14.5047488478 45.1535831553
423 1 -1 14.6606951885 32.3196519252 42.3725661976
424 1 -1 3.03647433277 25.0102221583 28.8327689154
425 1 1 31.5789743637 14.8734703373 15.3517536926
426 1 1 4.17828171258 2.6318499024 20.9631409261
427 1 -1 10.5018208945 46.7553463199 38.6159250668
428 1 1 45.7853827489 41.3379207733 22.9870240325
429 1 1 17.0095236707 3.02368025436 45.7232239749
430 1 1 12.7982169287 25.3095049504 10.743803114
431 1 -1 18.2051309992 14.8925020496 6.6428277799
432 1 -1 35.737410559 36.8203905916 23.0010290907
433 1 1 35.8257242688 28.7370173769 0.546259758124
434 1 -1 19.3052747254 39.9966516713 23.6537263107
435 1 1 36.6233796753 40.8670963801 16.1758186482
436 1 1 25.2292375319 9.78411466804 39.6063254771
437 1 1 35.9004765447 21.2562311161 5.58613536876
438 1 1 23.2816456487 8.44359461322 27.9460929945
439 1 -1 6.76628668755 8.82986874701 46.7099032124
440 1 1 28.5486507962 6.4017384028 0.435653171927
441 1 -1 33.1316430929 10.4755483361 4.33029484544
442 1 1 18.7966359645 14.261912274 16.5118837725
443 1 -1 36.4426854564 16.2358716191 0.14053438312
444 1 -1 10.8950903999 37.4457687811 3.78192086932
445 1 -1 7.22557861534 44.8680085483 5.54065309754
446 1 -1 25.3944704475 14.2053066032 12.7051232156
447 1 1 31.4333096173 29.750922527 35.0680266617
448 1 -1 13.3430525305 25.0980297525 25.9760313953
449 1 1 44.2990716477 32.8614816282 31.3830377588
450 1 1 24.2235957457 28.2185014435 28.6626216404
451 1 -1 34.895217911 36.3840521817 11.8558702991
452 1 -1 2.23013907927 31.7471563891 4.79252276323
453 1 -1 47.1156385703 27.2859871609 20.7127612147
454 1 1 30.2219361495 30.0937067559 4.98487816416
455 1 1 20.191967582 37.7946110332 21.9498883897
456 1 -1 39.2826308126 41.9052904425 29.2336546716
457 1 -1 7.00753087133 16.0880059814 40.3325721892
458 1 -1 34.1687742064 8.47024015061 10.9236508161
459 1 1 35.7056116501 27.9312991307 44.8984619368
460 1 1 24.398104024 33.2273031952 41.3495846359
461 1 1 42.1164525025 18.1943426453 0.357811303211
462 1 1 16.583569913 5.28702608099 44.4924001211
463 1 1 39.4121901486 14.9404484439 37.4387359698
464 1 1 45.335365109 9.98876179179 14.6855382958
465 1 -1 21.8543373073 47.8219126545 0.945112602476
466 1 1 47.7462807721 10.857597068 14.18829844
467 1 1 1.20505344101 37.5028567596 29.0799366186
468 1 1 15.6275007863 12.5491906098 18.3419189431
469 1 -1 33.5613232113 12.3441222301 8.25874630508
470 1 1 15.6739817005 11.1750336675 11.5732437967
471 1 1 4.45118914694 44.690458614 5.81940904802
472 1 1 5.14251411958 34.8732429299 42.9112122974
473 1 -1 44.9343017502 7.32770994107 9.36161760976
474 1 -1 17.3163395798 25.0713136926 32.4078574608
475 1 -1 32.2783921133 15.1823802068 1.25732916026
476 1 -1 19.2263798422 44.2701451117 26.3565301586
477 1 -1 46.2299196058 36.9844732064 34.4746540733
478 1 -1 5.58366278164 25.7355393097 16.5025866645
479 1 -1 18.9428193879 42.5582299178 4.11358126733
480 1 1 9.33251518831 9.54997714979 27.1932444592
481 1 -1 1.96679277522 15.2586552912 16.7091011273
482 1 1 8.53596228786 25.0831172136 27.2666830946
483 1 1 32.5585743066 37.17433904 28.6196913307
484 1 -1 9.87299529504 45.7815612753 40.0697346591
485 1 -1 31.9020555994 19.7176559481 9.19506399282
486 1 1 43.1348515863 29.8469025024 30.2418577725
487 1 -1 25.6138867084 15.2608874365 41.9117759838
488 1 -1 24.9076511231 25.7641193378 16.6229872215
489 1 -1 45.6088198148 28.857411289 20.437619721
490 1 -1 14.8877937961 30.2658191582 20.9539023105
491 1 -1 30.1627707782 26.9349918467 15.9270488675
492 1 -1 23.0764627406 19.1031657449 29.3967652671
493 1 1 26.205222643 41.3761543091 44.6869242058
494 1 1 7.91234193787 37.3920766144 12.4957672037
495 1 1 26.6837342552 44.494536417 27.6604374664
496 1 -1 29.7628681121 20.0150516998 31.6960755617
497 1 -1 27.7972731587 39.5217868172 35.548191934
498 1 1 41.0579155284 31.0374582964 6.69940889796
499 1 1 36.9821693905 33.3539577212 45.9901121283
500 1 -1 40.2472636598 14.3940652969 7.98188129459
501 1 -1 34.4660795361 8.75037422291 24.9479581535
502 1 -1 36.6999185075 4.96498902162 41.6398807205
503 1 1 13.1402837863 31.9773355531 21.9075322125
504 1 1 43.726266738 24.4965671972 34.172733742
505 1 -1 15.968383332 28.2216867171 7.89261408572
506 1 -1 16.4353554587 5.53726513791 0.744361212202
507 1 1 38.0589573972 17.4661337589 31.2652154926
508 1 1 15.0653403823 11.805619774 5.18551564124
509 1 1 12.2178771694 2.35870571968 9.98721113775
510 1 -1 15.9225950384 14.3505036806 26.9808379789
511 1 1 22.8729584754 21.964612434 3.21193636
512 1 -1 47.9499654512 14.1042674522 40.6563173025
