LAMMPS charge data generated for ESP error-estimate validation

512 atoms
1 atom types

0.0 48 xlo xhi
0.0 48 ylo yhi
0.0 48 zlo zhi

Masses

1 1.0

Atoms # charge

1 1 1 13.0362332315 43.510384864 8.95889029764
2 1 1 6.23839541555 8.392227702 10.4517188244
3 1 1 6.17462805938 16.6128547394 34.5358264406
4 1 1 6.84588483388 35.3301278037 40.3005807066
5 1 1 10.1658911814 5.09131249156 30.8864961425
6 1 1 14.7748581126 13.6242775269 41.4230111584
7 1 1 10.0695507503 40.8933363009 34.965551642
8 1 1 7.11671657487 8.44115893858 30.4576194684
9 1 1 7.05341621487 4.2180071146 40.4111817038
10 1 1 10.2012526905 15.2529082891 10.797042648
11 1 1 13.2171962602 20.2756884635 5.73404286641
12 1 1 9.70241287862 16.3355280852 27.3926367129
13 1 1 15.3829627044 12.9469486215 19.5556703438
14 1 1 4.40549783734 23.0001628288 20.5687601837
15 1 1 19.0939981919 29.7190505335 45.2341156575
16 1 1 5.58146282578 35.1161878994 46.8309070206
17 1 1 13.8404344485 27.6746764284 31.0048626101
18 1 1 3.92162534194 5.21890945068 34.7546981892
19 1 1 15.7717618486 33.5585011772 35.0152589412
20 1 1 18.7556745053 23.7070260897 12.1510275381
21 1 1 14.2235489706 12.3289133396 39.0965711504
22 1 1 4.93435019166 17.0066279344 16.9246962616
23 1 1 18.6925304961 27.8036904072 41.5666067704
24 1 1 15.4522423322 30.617540021 5.73744218807
25 1 1 13.5444955033 26.3446650981 19.2197599684
26 1 1 11.2162236279 24.1692002307 7.98595223526
27 1 1 17.6438702892 45.5909909166 40.4346084117
28 1 1 10.7742873735 1.69869131906 11.2123575698
29 1 1 14.7521551196 47.1154227699 6.21960937016
30 1 1 12.2009233269 35.9724988775 11.258314392
31 1 1 13.4078330943 36.1593023494 0.262821686983
32 1 1 11.9723929302 32.3470252554 18.3000775738
33 1 1 10.9880980667 45.0039797341 41.6098960873
34 1 1 14.167171356 3.52910714223 33.9098676159
35 1 1 8.44747586762 31.1819020025 34.5174501936
36 1 1 19.6428680744 35.2867307144 47.0126508417
37 1 1 19.2667373277 22.707753956 17.9666167513
38 1 1 13.3989005718 40.2735222999 40.3474637069
39 1 1 12.8351677707 40.0164464819 5.12147659234
40 1 1 5.28138616931 23.5940489925 27.0127502113
41 1 1 12.3154492696 42.3740152425 33.7323842406
42 1 1 5.56862383836 47.2754888633 46.5208762259
43 1 1 18.6195487777 8.02394799942 17.5405473986
44 1 1 12.3617888307 0.0204716142132 0.00745615096423
45 1 1 20.0474575094 47.2073893824 26.5886796304
46 1 1 17.9900958129 18.1532841805 35.4950065433
47 1 1 18.2061525689 25.3882013627 35.9014337453
48 1 1 13.1434421396 47.4745169881 45.947677351
49 1 1 14.7726464102 27.3127844536 10.8678049475
50 1 1 6.5809725555 12.7520535383 35.3061322101
51 1 1 11.0397549212 47.5090408152 8.95872873954
52 1 1 16.7317315182 30.8199544593 43.710395995
53 1 1 9.34339819738 4.08239007983 43.6536866521
54 1 1 9.30750655314 3.98498177178 14.8157890326
55 1 1 4.19306566978 22.3723904168 45.282130105
56 1 1 18.0234820675 5.63842792066 40.9960797172
57 1 1 4.73411922016 45.7776735978 45.7993963192
58 1 1 18.0340669778 2.55329731124 2.42737611595
59 1 1 13.949113657 5.95292145839 34.936930126
60 1 1 19.5195085346 41.5883728594 33.6036378925
61 1 1 13.1894718089 3.83472979942 39.8853435837
62 1 1 11.7951925656 10.0624022027 26.500617003
63 1 1 13.0311483022 34.6135317552 44.8374323079
64 1 1 19.9513362142 41.1281301005 41.5874114254
65 1 1 5.91352348555 1.52439136667 2.87193895634
66 1 1 17.0522471866 20.9910730236 5.56953607085
67 1 1 15.6753396006 2.67956581269 46.551633477
68 1 1 18.404633775 31.1909774262 23.4168465542
69 1 1 5.85473269973 44.7310289158 19.2124653067
70 1 1 17.5169296078 7.00041809633 1.9904771902
71 1 1 18.8316650498 27.6315150915 33.0558056915
72 1 1 14.276597745 46.4402202648 29.9640853861
73 1 1 19.8064175622 35.1494629731 10.4168494059
74 1 1 19.3712337823 33.7916686921 0.582925378251
75 1 1 7.54665100161 4.55911556776 44.2365658876
76 1 1 10.2756891475 12.3227173367 4.83523716665
77 1 1 6.80932133793 4.24476859649 14.8694860801
78 1 1 4.00473183743 46.7530608305 31.6037981118
79 1 1 14.1736560943 33.5208842689 1.50901823924
80 1 1 19.5621477947 39.4686688354 38.9232297971
81 1 1 11.3171839814 30.6014347288 25.6510936051
82 1 1 3.90581903797 2.69578118423 5.16609722634
83 1 1 13.674601138 33.2062887953 22.4885100676
84 1 1 14.4076016837 43.4076708476 16.3081068212
85 1 1 9.50788227276 45.0841699496 29.4490542417
86 1 1 12.1464433022 14.6700715285 47.2878981944
87 1 1 11.3569752447 11.6207673008 35.9694252194
88 1 1 8.89945101556 44.4468541794 33.9545614473
89 1 1 8.31111727919 5.22185403885 42.9904606252
90 1 1 4.57891542743 15.4204767508 4.2863496359
91 1 1 14.9453070912 24.6584590571 22.428229284
92 1 1 16.9706111332 44.8167882819 29.3873090811
93 1 1 16.9386969211 29.0832246575 41.0106018632
94 1 1 15.7141928204 26.5695862668 24.8791461659
95 1 1 8.59138653371 1.92816623211 36.1737938387
96 1 1 16.5135800948 16.9978866664 26.2976705713
97 1 1 16.1789998784 19.3803758273 27.4004969371
98 1 1 17.3748682202 3.65868917259 7.82594460884
99 1 1 12.8587209373 4.78105755415 24.7646350625
100 1 1 13.4464948337 39.0235462325 12.7934240441
101 1 1 16.4407900168 21.1774074472 9.23240807624
102 1 1 9.20123596322 31.6543814937 28.5315516828
103 1 1 4.16047628402 4.64416907064 40.7159904619
104 1 1 7.03322612626 45.5659740525 35.1891479649
105 1 1 12.7746444024 10.940485971 40.3937297391
106 1 1 10.4213758884 18.9057168261 17.434991265
107 1 1 11.3667603371 19.6188323463 20.0991825791
108 1 1 9.43644774474 30.5630273154 47.8281003558
109 1 1 17.6854060115 8.10732318997 42.020098664
110 1 1 10.2453243324 20.7860410003 15.9999140566
111 1 1 12.9623634876 12.0863823584 38.9837037145
112 1 1 18.7883797327 31.741746067 34.0375823944
113 1 1 3.91924482195 5.00621562514 44.2988018189
114 1 1 5.07119669807 45.6673879799 0.810329664368
115 1 1 13.7850197156 4.22934858457 11.7958076601
116 1 1 3.91150606379 9.79991321209 2.67253565674
117 1 1 9.75560440035 18.4106912947 24.2718584762
118 1 1 19.2186047821 46.649569368 0.442284319722
119 1 1 5.96070530796 13.0633978539 31.6010324329
120 1 1 15.6979616074 11.5148967177 39.1109200675
121 1 1 19.5675058238 23.6566702065 43.1073074625
122 1 1 18.0465981207 9.89637485131 24.3182209125
123 1 1 16.4718682683 28.5987672969 37.4844438126
124 1 1 18.6418438985 11.7180431439 15.0262445885
125 1 1 16.5310513059 7.78436280725 9.65152025012
126 1 1 8.6004093588 6.38178489383 14.2949304481
127 1 1 8.73425894223 10.6556063856 15.2313875523
128 1 1 10.3594252898 35.3231230116 39.3369381787
129 1 1 6.91805527824 38.1245929406 34.2751401879
130 1 1 12.5004965234 22.0134393004 23.310982987
131 1 1 14.1126028684 0.812739565411 8.92875377524
132 1 1 10.268666116 1.65704433318 3.55003337277
133 1 1 13.2625836809 9.51181802876 16.2274246972
134 1 1 6.73134113135 5.82872035392 0.166350783378
135 1 1 10.8134581169 33.8699950501 27.2868646472
136 1 1 19.3711139554 24.2827994411 13.1942872455
137 1 1 7.47454665868 40.8722182374 6.50486625554
138 1 1 14.0970027852 39.0281275389 33.3001925061
139 1 1 20.0734454997 7.49318489885 9.13492403113
140 1 1 12.9060247356 2.78060081919 7.05844489798
141 1 1 15.8885550483 34.7310018317 22.0085434828
142 1 1 8.69592276217 5.44364144386 18.5965629145
143 1 1 5.37919173134 13.1147425814 41.0166733449
144 1 1 4.36284381937 37.3313482978 0.371476970376
145 1 1 16.0445811276 33.4430504887 28.4621684394
146 1 1 19.0893352828 33.6761508898 38.4363892823
147 1 1 12.74577266 44.9386265442 7.38629114133
148 1 1 10.6694129768 2.31272045363 32.3779194124
149 1 1 8.09641334316 44.6031877334 11.8699680829
150 1 1 12.1450928971 20.7532689018 13.790890846
151 1 1 8.47123102771 36.7421211542 21.4364006121
152 1 1 11.6633692106 2.93182714031 26.1491241556
153 1 1 4.19683254784 3.21855225964 6.03218626736
154 1 1 16.6774640547 14.0833087335 13.8495789305
155 1 1 15.1990339058 44.2906241597 38.1677775117
156 1 1 4.67477327989 33.7529231831 5.3674557158
157 1 1 20.0014891679 2.54155916718 0.224356744248
158 1 1 17.1286331194 26.3464107889 0.976151820545
159 1 1 17.7926905636 25.1050630081 44.4527677569
160 1 1 9.56839885554 38.734121358 5.04037656667
161 1 1 10.4330388731 26.9503967657 8.83471327949
162 1 1 16.0801588425 36.4102929478 33.458571607
163 1 1 14.0867244143 21.6755164419 43.4466622395
164 1 1 13.2751250432 31.5723145352 28.5475652541
165 1 1 6.85561754997 25.726240575 8.82836177134
166 1 1 6.68398368684 27.210681508 44.2568979938
167 1 1 13.8915739321 45.7511303621 18.786094447
168 1 1 16.389625268 26.3851079314 22.4849534698
169 1 1 16.2059859171 26.6745044069 32.3195612221
170 1 1 5.11032257248 14.1539425452 3.69217526996
171 1 1 11.6668733876 32.1580528743 20.5365138326
172 1 1 19.0932703183 1.62068608506 11.2042735158
173 1 1 16.0722955433 15.2895149397 33.3650809376
174 1 1 15.0025404112 23.7715085617 27.5238408499
175 1 1 4.64121429988 1.96422990428 44.8033812425
176 1 1 17.4527904184 29.2526999459 25.8655065098
177 1 1 15.1104952851 42.228441804 11.3603642833
178 1 1 7.35225949504 24.1468649828 36.4951928851
179 1 1 5.0820818937 25.1762743554 42.6022651484
180 1 1 17.5562492632 25.2770573873 30.0874461146
181 1 1 18.212375261 42.6784673707 42.561130474
182 1 1 13.3038824891 20.5607112369 10.4256100294
183 1 1 14.2012480467 28.5211942007 45.036123883
184 1 1 9.61038726191 45.2732223463 24.2702268374
185 1 1 16.9387703306 17.039679778 45.4671613893
186 1 1 4.70909801243 42.1049133029 44.2681056113
187 1 1 18.1934011007 27.2670695094 23.1029103007
188 1 1 6.71676797959 24.8338732249 46.1183268109
189 1 1 6.75630189077 47.0325768669 47.6449790442
190 1 1 4.63428432113 21.1443348925 32.7032519663
191 1 1 7.4539915378 21.0599100486 8.94260764399
192 1 1 19.6165182045 32.6622585875 5.05846719648
193 1 1 16.418566745 46.9439352858 47.1726269138
194 1 1 4.22098912839 22.8911352367 43.9478137326
195 1 1 12.8353483448 34.2719337229 5.82934698949
196 1 1 8.83854513669 43.5118239476 11.4484612436
197 1 1 18.5610981387 24.9452862224 21.066698588
198 1 1 7.3562281353 0.698423932428 38.556312088
199 1 1 19.6624242918 13.8919666459 36.3624902924
200 1 1 15.8441941155 23.8353252251 38.739693915
201 1 1 11.0310349898 46.9219998631 47.6784825464
202 1 1 19.7714059182 32.6690165784 46.1175263431
203 1 1 15.5053262863 33.7520595907 11.4964254559
204 1 1 12.4142079005 26.9514098261 22.2263636967
205 1 1 13.0518492694 23.770462531 5.46728185422
206 1 1 14.2650455 14.1739554527 24.7219029246
207 1 1 17.9124731843 27.1336390636 35.2094298327
208 1 1 7.50115514879 35.3786268844 0.914490201636
209 1 1 14.713665582 25.4454973271 42.4660168663
210 1 1 7.75557545634 15.3241673204 16.5922462617
211 1 1 12.5467342036 44.3306545785 18.5844964667
212 1 1 20.1471931027 41.2065062484 33.760562851
213 1 1 17.7920093424 41.8713717419 42.761937807
214 1 1 13.608641234 22.3736334552 30.4960635968
215 1 1 13.1208224001 3.53929221567 30.6279035478
216 1 1 8.54993491654 31.4655579787 33.9819499371
217 1 1 14.0383898936 23.7081829703 16.1734377849
218 1 1 11.9615157575 38.5087498149 39.8671855173
219 1 1 5.39375771787 16.2626723817 42.7141235706
220 1 1 5.90832997994 39.8392629969 34.6887546671
221 1 1 8.93412748342 25.1206161127 44.7361422661
222 1 1 19.9446612899 36.6765038585 20.9148335873
223 1 1 17.1779946448 23.349487994 1.11567054095
224 1 1 12.566238619 12.8693558079 39.94294096
225 1 1 7.82638784236 20.0804492867 41.1226338982
226 1 1 14.1477014133 39.4769821055 15.1938111996
227 1 1 12.8569810402 33.5032406044 47.2034387314
228 1 1 14.9684755962 24.0273547979 43.562447823
229 1 1 7.90384682563 45.9629434004 14.4737495995
230 1 1 8.39401941655 46.0838761816 31.57052963
231 1 1 11.0702813766 5.96014728549 14.4880092532
232 1 1 8.24398116367 20.8364570837 17.8653045997
233 1 1 9.4092864746 17.8786624247 12.2436697669
234 1 1 16.7041466 30.6644794535 7.70677888258
235 1 1 7.63445002157 10.7067925424 24.3493409178
236 1 1 7.26040791452 42.2911667643 18.4918108197
237 1 1 8.790759085 0.393981832793 6.6441054589
238 1 1 12.5943560412 4.20332466801 45.3881777899
239 1 1 9.19310869993 40.2848944233 2.86833619107
240 1 1 4.53845306036 26.9213464645 33.8450822647
241 1 1 9.95422664421 7.13503142201 38.1390854057
242 1 1 6.38603141385 7.54455859654 14.3548120153
243 1 1 15.1383536253 25.825381224 37.1351079858
244 1 1 18.839733604 17.3679969395 21.8497848001
245 1 1 14.5791333057 35.9468732337 20.6629663807
246 1 1 9.23825761952 34.6274905138 11.4232028815
247 1 1 4.97751588333 42.1790296425 11.4630610736
248 1 1 6.54001360491 28.0002626642 43.5478971935
249 1 1 4.21245956628 39.9242042954 13.5368343398
250 1 1 5.14710504002 8.37394534069 14.1845956186
251 1 1 7.80364417951 8.19312718236 2.43448123668
252 1 1 13.7226981203 9.49528591494 43.4936330109
253 1 1 12.8250925168 24.3816174922 8.67497740425
254 1 1 9.04923858102 0.393355659028 20.6707218199
255 1 1 8.9888446686 33.7046527387 5.10200596007
256 1 1 13.9859481537 44.4276907758 16.4065149184
257 1 -1 29.0648799292 36.5628520589 2.92653208519
258 1 -1 40.1085483953 39.6381067404 29.9788831463
259 1 -1 35.6757568764 36.6633613523 4.66502465841
260 1 -1 36.288914865 14.8092510932 46.7319525725
261 1 -1 39.0212219589 26.2900926179 21.3929303744
262 1 -1 40.9717557385 29.2004924451 29.9664098245
263 1 -1 38.1268613326 20.7679422734 1.81528224304
264 1 -1 42.6945172866 29.7481492913 3.75370474534
265 1 -1 37.3615579738 34.0501393702 12.8973426385
266 1 -1 31.2223051259 26.3690948358 6.09664312158
267 1 -1 39.9881412678 19.7111612414 47.5975283891
268 1 -1 40.5838088908 19.9020753929 44.9029484313
269 1 -1 29.8766615733 13.3888619302 9.94670625546
270 1 -1 41.6520857491 17.0634316288 8.83134817627
271 1 -1 31.2150721846 16.5312108885 27.433368908
272 1 -1 33.5421941973 39.8189578007 7.17023483166
273 1 -1 34.5385727263 8.16486332238 36.1680446651
274 1 -1 39.2127890792 9.23200217102 3.9316438256
275 1 -1 41.263269015 47.4178937813 2.33972725101
276 1 -1 40.6956570581 41.3316271112 19.0638849328
277 1 -1 43.6619554044 24.8271007147 23.8153977388
278 1 -1 41.9853787696 16.830191087 5.34339299629
279 1 -1 39.7895311468 24.0600590626 20.6659646098
280 1 -1 43.47997079 31.6149154522 20.8955288048
281 1 -1 40.45671618 39.8752632463 26.7467967957
282 1 -1 36.2755967931 14.5870315442 36.0847943017
283 1 -1 40.638518575 42.3517037532 16.0650661905
284 1 -1 37.1537706269 10.4111689977 38.2557484969
285 1 -1 44.1298450429 27.3727542377 16.9464189315
286 1 -1 42.1706766429 16.1646122819 10.4971225313
287 1 -1 39.3404718644 35.1133992379 30.2212059866
288 1 -1 37.740467878 24.1205855427 47.0413761843
289 1 -1 28.7569064343 26.9172799503 31.8704552554
290 1 -1 43.5617014347 18.8989778373 18.7000861411
291 1 -1 28.2692268093 37.0822302218 43.6308970059
292 1 -1 34.6370639626 25.402755546 34.4604979599
293 1 -1 34.3236318932 40.7533998458 34.9971608625
294 1 -1 28.3986376828 28.2224859122 41.4169183293
295 1 -1 31.6634759506 30.3662796293 21.3264771044
296 1 -1 29.2760660063 7.77693915702 24.1528432051
297 1 -1 37.9716344188 46.9458542518 10.3377044459
298 1 -1 42.9578824526 26.9167703763 7.12832645488
299 1 -1 42.0577151226 1.79940433333 33.0438004089
300 1 -1 31.9436602398 30.2656764965 33.2797133393
301 1 -1 35.9806694419 28.3226075522 38.0316890104
302 1 -1 31.5271879768 32.7101402536 12.3528292936
303 1 -1 32.7545615269 28.6721118541 27.9193639151
304 1 -1 29.8559251283 21.5014860147 6.04879051975
305 1 -1 36.9431904225 7.63038937919 14.5220287236
306 1 -1 30.0001265528 27.4019482228 6.12513066176
307 1 -1 39.1518333344 6.25127915795 14.8652180512
308 1 -1 31.9567197154 40.9008055807 2.23200382203
309 1 -1 35.7610146983 41.282292029 37.2842224908
310 1 -1 37.5816155526 33.1052572051 27.5123393728
311 1 -1 31.6216644271 22.618063925 19.9060409631
312 1 -1 33.9654871136 4.3419982348 35.6122857723
313 1 -1 43.8330453531 38.6894419301 18.5776516168
314 1 -1 28.0386820448 27.3230477791 21.4073288907
315 1 -1 41.2195369849 26.7343266183 27.2628011549
316 1 -1 32.2458767393 34.5339363136 13.9232630551
317 1 -1 28.9467839726 43.3239381787 27.5962043261
318 1 -1 37.8734141814 25.7414679466 40.0540124883
319 1 -1 28.5332443772 5.08340780758 19.0872805946
320 1 -1 40.1068693227 13.3318150426 12.4977062248
321 1 -1 43.2757704639 26.4860733991 45.0703766645
322 1 -1 35.3635473444 15.7882510811 12.4842509953
323 1 -1 42.8886506093 3.36178720501 31.2206481206
324 1 -1 30.3529189875 47.58532577 12.7682956138
325 1 -1 43.9772069515 20.3864757171 44.3973807113
326 1 -1 40.7806510427 23.0927944775 6.79691205962
327 1 -1 39.0590332056 19.835521416 12.1442885497
328 1 -1 40.7815933526 10.0292004537 5.53956161678
329 1 -1 33.4661672075 44.1296444416 23.2746363447
330 1 -1 43.1067791331 43.4608597425 36.9918237654
331 1 -1 33.0697462195 31.6376610931 43.5900973072
332 1 -1 33.7448958445 31.2451497237 36.7625042263
333 1 -1 31.7161242301 25.1613596306 30.0393623001
334 1 -1 41.7237178094 7.09101359413 5.32380538999
335 1 -1 34.8394389357 22.6685599491 14.3467777918
336 1 -1 33.1688262736 3.01045446616 9.08188403178
337 1 -1 39.6944715673 25.640372738 5.94163901369
338 1 -1 32.3334385002 13.8754399042 27.362671526
339 1 -1 33.2343055403 47.0573155801 28.1331856444
340 1 -1 41.1296716481 24.6401481407 23.5597827305
341 1 -1 32.3369954597 16.2488117732 26.6308854177
342 1 -1 41.8586057903 18.3577155412 16.6332705571
343 1 -1 38.3032832958 5.54454335332 21.9512835501
344 1 -1 29.6368764227 42.1229553036 42.4146617296
345 1 -1 34.54809693 41.9546911475 46.9906941298
346 1 -1 32.2508301989 46.2544529826 32.9193019148
347 1 -1 28.1053766769 46.8101798912 19.1980380027
348 1 -1 39.12994675 1.05804413716 33.2017359103
349 1 -1 43.1577199163 11.8454528184 27.6358406526
350 1 -1 43.1255403651 40.1793924506 32.9421900072
351 1 -1 31.8580409006 44.7785986532 41.9576261949
352 1 -1 42.0600649679 26.4068965013 35.4846986234
353 1 -1 43.1848606856 2.53995146336 39.2199396301
354 1 -1 33.3316069242 23.4514429386 33.8467940921
355 1 -1 35.1669899977 6.01601748288 2.07524700885
356 1 -1 37.7443041635 47.1887175969 17.5718992721
357 1 -1 41.9794355598 10.8046690491 33.6026406209
358 1 -1 39.0946897762 29.7671745137 6.29853571786
359 1 -1 36.2414773679 15.0408754235 4.181844797
360 1 -1 36.9390581171 47.4646441925 40.8573089682
361 1 -1 31.0669175209 18.1010710735 17.6143316263
362 1 -1 36.0710739295 4.35446951497 30.0145169099
363 1 -1 43.6869039405 16.0194151689 14.6790506467
364 1 -1 35.2883929036 0.0639143616224 20.9427081036
365 1 -1 40.5305062734 20.7641033182 7.54831427866
366 1 -1 40.9293889487 6.51044309352 12.9816310344
367 1 -1 36.0276913692 9.16404848148 6.99418339873
368 1 -1 28.0433699089 17.7081711668 7.84151970555
369 1 -1 28.9024695359 14.9764764765 6.46502917441
370 1 -1 37.3819224482 34.1333568067 35.9098846108
371 1 -1 41.7100528155 7.7290806571 29.7338416174
372 1 -1 30.1234150702 21.3648875666 33.7583003835
373 1 -1 44.0277320542 13.6239936052 32.312519102
374 1 -1 43.070759536 5.53530269881 45.3507343231
375 1 -1 34.0233129309 47.3577535476 29.3709418219
376 1 -1 33.4555640717 17.9180183591 3.87444376721
377 1 -1 40.1385710979 17.2082468699 38.7393741431
378 1 -1 42.4629210115 43.566367199 13.9015560646
379 1 -1 41.2127291561 19.5784423613 11.7504695488
380 1 -1 30.3668658972 42.2966471914 7.1567775948
381 1 -1 27.9144193266 3.79613880656 1.44939232802
382 1 -1 40.8707373533 39.6908081236 46.5584556523
383 1 -1 36.9672373055 20.8508509811 41.1837127478
384 1 -1 44.0989314047 39.9052924108 47.0793530387
385 1 -1 33.4027493634 33.7553970206 14.5751707251
386 1 -1 28.6206657137 29.7207962135 45.1887676541
387 1 -1 32.9952625047 21.9844666184 28.7383661371
388 1 -1 32.2818097064 19.7747003789 3.53780415747
389 1 -1 43.1526848402 30.4275929755 2.91587018066
390 1 -1 42.1005311219 30.6696252007 31.7683680074
391 1 -1 32.4008950062 38.7938953522 6.53713376774
392 1 -1 32.9512524184 30.3502406668 1.42731327379
393 1 -1 29.3478643892 26.0725188683 36.9259909768
394 1 -1 35.7656154235 4.38598005904 37.5945551628
395 1 -1 32.0089412447 20.0396807536 43.5737399982
396 1 -1 43.1016680706 30.6301184046 9.76718848714
397 1 -1 28.5952212999 47.9335502547 27.4947095854
398 1 -1 33.4871369314 37.1254622668 6.47196719376
399 1 -1 30.4016428974 33.8664050151 5.53354224981
400 1 -1 43.081201979 14.753500563 0.675080487512
401 1 -1 39.9161230928 1.51190542584 5.40697883506
402 1 -1 40.7163754123 23.2309947073 39.3160428198
403 1 -1 40.2022978525 34.5411206864 43.996300709
404 1 -1 32.2735986622 43.2288950262 25.1512086031
405 1 -1 43.8239584386 5.38271917192 19.4022168042
406 1 -1 42.1029194574 8.99382913696 40.9532364498
407 1 -1 32.9361531557 27.6191847435 38.2923438049
408 1 -1 29.8848415386 8.56282360658 29.7801433966
409 1 -1 27.8401259366 14.3789184053 5.1233871419
410 1 -1 34.4647899514 41.5916908961 18.6672946695
411 1 -1 32.7315250304 12.1970192299 47.1427809825
412 1 -1 31.6552604123 27.1822852122 5.90171378188
413 1 -1 32.8320296299 42.0747185716 24.6843841061
414 1 -1 30.6003206615 31.3854630709 22.9776984689
415 1 -1 38.9139335693 42.1546262293 10.8913107963
416 1 -1 37.891257955 44.1195465376 29.1838424941
417 1 -1 30.897429364 22.564391744 45.9147623431
418 1 -1 35.8855354892 44.974158875 15.2591329608
419 1 -1 32.7519771151 7.1514465779 9.68211822757
420 1 -1 39.0639654839 24.5970583352 4.60818675162
421 1 -1 34.9433324139 31.4896783509 44.1670730189
422 1 -1 31.5907927882 34.3991733339 4.46377872336
423 1 -1 37.2186316217 31.5749210655 42.5781262503
424 1 -1 33.5382104668 18.938376047 16.2994892403
425 1 -1 43.254024178 46.3705144944 10.8213594609
426 1 -1 39.7194862098 37.2245765019 36.701152508
427 1 -1 39.6635104381 13.8248386878 32.1706564499
428 1 -1 36.9797418441 19.9348561473 27.371309738
429 1 -1 28.1327640424 35.8437413144 21.0591980354
430 1 -1 33.1749915833 33.646221487 19.4168233038
431 1 -1 38.8760603856 1.93497798276 9.82075084318
432 1 -1 32.3383617405 11.8744989384 14.1274602818
433 1 -1 33.8835578295 42.4812312493 1.45017235101
434 1 -1 40.5494892923 16.6704023083 0.713444290597
435 1 -1 36.9633165286 24.1404081638 47.0668837429
436 1 -1 37.2726022948 30.7083142613 33.7290455161
437 1 -1 29.248620582 18.495803191 17.789743753
438 1 -1 37.5248468109 4.93468449775 33.7936692534
439 1 -1 30.3354534901 26.7255587342 21.1781499015
440 1 -1 35.0462100928 23.6636729338 20.2833271473
441 1 -1 33.6952035763 39.4842818276 40.5635357698
442 1 -1 31.3478603739 26.4607460583 21.5786192529
443 1 -1 31.3555843107 19.5458146435 31.4873937954
444 1 -1 38.1954819833 8.16399011892 39.2602819576
445 1 -1 35.8143045865 0.23947277959 18.5467785114
446 1 -1 35.1743589569 25.0893221591 25.2010548446
447 1 -1 43.4929232305 45.6898360256 27.9568492233
448 1 -1 42.1836836636 32.6257176313 25.7685269704
449 1 -1 36.5142488507 42.4531856819 31.0093892436
450 1 -1 38.3940040199 23.3751867705 34.4589459114
451 1 -1 35.8873051248 25.8064130373 28.4043496887
452 1 -1 39.8143276292 36.5107559021 29.0969968921
453 1 -1 28.4282349013 31.0292722139 24.6421277233
454 1 -1 39.6695021844 30.9634229277 37.0135743669
455 1 -1 29.5748399542 2.19613396398 15.3706332033
456 1 -1 28.1097670361 41.8830779599 36.9408550332
457 1 -1 41.4793067742 30.3455812678 11.4424596396
458 1 -1 33.4771051584 12.061239162 15.4301576162
459 1 -1 35.7939983036 3.9075668215 39.5835530384
460 1 -1 29.3466975593 20.3079599244 17.9192664816
461 1 -1 31.1738445785 13.6224727819 32.4341225908
462 1 -1 28.6786408731 7.49012722016 3.41581791874
463 1 -1 34.855176798 29.1801294295 3.47045112034
464 1 -1 40.2859458895 18.4124386224 16.1405391592
465 1 -1 43.4921250403 24.7210205201 44.0608049491
466 1 -1 31.400409357 30.8904343419 33.8338712508
467 1 -1 35.0974777683 40.5560068072 42.2885936768
468 1 -1 33.9524610239 13.0782990242 2.84406068017
469 1 -1 29.8676542279 13.3595193793 21.4008673415
470 1 -1 37.5234351705 43.4989207482 29.7931987609
471 1 -1 38.6764158199 1.90267243044 11.3645738676
472 1 -1 39.0235249785 39.6323337621 14.3808278515
473 1 -1 36.2561518043 27.4320544707 19.6052069092
474 1 -1 36.3942823476 42.9121588299 13.5590388451
475 1 -1 33.2616961222 25.9413553663 38.6906870299
476 1 -1 37.2857451123 38.1682141026 39.651675064
477 1 -1 41.5645985306 34.3982543469 6.65759253328
478 1 -1 29.4363264092 19.7827203032 13.7643266407
479 1 -1 32.7482971343 33.8151023223 9.54359616176
480 1 -1 37.2356126766 33.748453091 36.3414933167
481 1 -1 42.6797337897 15.4904707619 6.20265953594
482 1 -1 44.0015099714 35.9164024427 7.20238812767
483 1 -1 32.6062529754 30.6580120355 25.5103040172
484 1 -1 39.4084419378 41.1848137764 22.8342223442
485 1 -1 43.6964295962 41.213736581 40.48186563
486 1 -1 31.7340418118 30.803673349 0.790402073174
487 1 -1 28.9026277022 37.9864791798 37.7137717238
488 1 -1 32.2883019227 43.0039204155 5.53257908707
489 1 -1 43.7120264293 37.4569414846 30.71705436
490 1 -1 35.1985593455 19.7444836402 32.8819453339
491 1 -1 32.9381282922 1.86589922224 27.5118984009
492 1 -1 41.1326988417 22.6257703393 22.2549005617
493 1 -1 42.5144278834 30.8305893508 21.229715021
494 1 -1 39.1004592667 4.90327139204 44.4740278467
495 1 -1 39.7888666682 26.0661328822 39.7294605246
496 1 -1 32.2468841433 12.1365315094 16.6245731206
497 1 -1 38.4825053396 1.03914811017 8.06617477828
498 1 -1 30.2386511405 24.5330661937 19.9017281578
499 1 -1 31.0801237029 47.4371334201 2.56680675683
500 1 -1 42.1116191604 44.0440255549 42.0832987805
501 1 -1 38.4315366735 41.7205826871 6.84519247066
502 1 -1 42.9007493331 38.5352654443 0.832799373533
503 1 -1 29.7538321813 9.22586681746 44.6242252009
504 1 -1 28.1098042597 19.6185735128 26.5185179969
505 1 -1 36.0963184561 37.2955857956 10.3718624591
506 1 -1 34.4807697684 44.1356914832 25.8434632391
507 1 -1 30.2564809648 30.2303994914 28.2856945933
508 1 -1 38.5018731785 38.1348026545 7.66116483206
509 1 -1 43.9384627399 12.9073755623 8.29211793603
510 1 -1 35.1900475875 34.2239314755 38.1468976225
511 1 -1 28.1665136037 41.7502043362 19.809798337
512 1 -1 30.7120031846 41.7028402374 37.6723335482
